LAMMPS data file via write_data, version 7 Feb 2024, timestep = 50000, units = si

200 atoms
1 atom types

0 0.1 xlo xhi
0 0.1 ylo yhi
0 0.2 zlo zhi

Atoms # sphere

148 1 0.005 2500 0.003254655352688254 0.0026062419362355665 0.0024997046443579803 0 0 0
96 1 0.005 2500 0.018250957399415922 0.0025397023966310037 0.0024997046444737146 0 0 0
17 1 0.005 2500 0.04590211263131173 0.002988283248408136 0.0024997046457221903 0 0 0
139 1 0.005 2500 0.07221530508997684 0.002821858207575611 0.0024997046343878254 0 0 0
153 1 0.005 2500 0.09132825729307956 0.002955471126237286 0.0024997046444739024 0 0 0
160 1 0.005 2500 0.03132430951495975 0.0049367797192727 0.0024997046444739015 0 0 0
159 1 0.005 2500 0.036590329105676306 0.004315163571482457 0.0024997046444739015 0 0 0
20 1 0.005 2500 0.0675959053393083 0.00477975665498311 0.0024995435361132023 0 0 0
77 1 0.005 2500 0.08164749008478356 0.00329148301947473 0.0024996929870723605 0 0 0
182 1 0.005 2500 0.0027473517621492563 0.007760748404871706 0.002499704644473902 0 0 0
24 1 0.005 2500 0.009761889140288766 0.006289737049400791 0.0024997046444739024 0 0 0
101 1 0.005 2500 0.01849243282227862 0.008263988289544008 0.0024996833268041193 0 0 0
84 1 0.005 2500 0.02484066997109875 0.008240733939703098 0.0024997046444739024 0 0 0
50 1 0.005 2500 0.04244195755316982 0.006685326175011051 0.0024997046444739024 0 0 0
26 1 0.005 2500 0.0493567867907687 0.006773248426862745 0.002499704643125295 0 0 0
85 1 0.005 2500 0.09362332448973895 0.008855493075193193 0.0024997046444739024 0 0 0
91 1 0.005 2500 0.02982624112774596 0.010797879706466777 0.0024997046444739024 0 0 0
193 1 0.005 2500 0.035464331236397736 0.01002380011529604 0.002499704644473902 0 0 0
53 1 0.005 2500 0.0611605417828418 0.011062750352812711 0.0024997046444739024 0 0 0
135 1 0.005 2500 0.06674558875525986 0.012025176410656657 0.0024997046444739266 0 0 0
22 1 0.005 2500 0.07148912013962912 0.00899152142110317 0.0024997046444739006 0 0 0
29 1 0.005 2500 0.07610260831093459 0.011428839189574963 0.002499704644475602 0 0 0
187 1 0.005 2500 0.08393701667018892 0.009903860364650645 0.0024997046194545976 0 0 0
199 1 0.005 2500 0.016304957598697607 0.013187141660370926 0.0026607243630409794 0 0 0
123 1 0.005 2500 0.021562139393954766 0.012707660788938242 0.0024997046444739024 0 0 0
30 1 0.005 2500 0.05593667932795822 0.013848238147790515 0.0024997046444739024 0 0 0
179 1 0.005 2500 0.08870310611590349 0.012487797355439544 0.002499666017196454 0 0 0
127 1 0.005 2500 0.09638156714726764 0.013792347477838146 0.002499704644473902 0 0 0
109 1 0.005 2500 0.0027321860791802086 0.015495692400260766 0.0024997046541041243 0 0 0
149 1 0.005 2500 0.03415808714243309 0.016677159035306185 0.002499704644473903 0 0 0
36 1 0.005 2500 0.039885920963012245 0.01757215894771844 0.002499704644474289 0 0 0
128 1 0.005 2500 0.04542340247247455 0.015260631135578047 0.002499704644470026 0 0 0
47 1 0.005 2500 0.07752838015861868 0.01643593109538395 0.002499704644471515 0 0 0
117 1 0.005 2500 0.08280188398199134 0.016118108625677172 0.0024997046444739024 0 0 0
183 1 0.005 2500 0.08797068444471778 0.01744442307341557 0.0024997284699175967 0 0 0
169 1 0.005 2500 0.013544678333111822 0.020966933983822548 0.0024997045839301557 0 0 0
33 1 0.005 2500 0.021672677017400402 0.01918027524129825 0.0024997046667015656 0 0 0
103 1 0.005 2500 0.026949213271468354 0.019653584714885677 0.002499705154191469 0 0 0
88 1 0.005 2500 0.05008063193850804 0.019047627471621878 0.0024997046444739024 0 0 0
61 1 0.005 2500 0.058262788093615604 0.02089229529748052 0.002499704644473902 0 0 0
181 1 0.005 2500 0.0634106804351486 0.018189181675157484 0.00249970464333434 0 0 0
79 1 0.005 2500 0.09313805235678368 0.01942100627909702 0.002499707561841289 0 0 0
15 1 0.005 2500 0.007990761678138211 0.023109837023098392 0.0024997046449396587 0 0 0
45 1 0.005 2500 0.03150114648801621 0.022117510408534293 0.00249970500669962 0 0 0
58 1 0.005 2500 0.03708563398842294 0.02189555975972818 0.0024997046444739015 0 0 0
55 1 0.005 2500 0.043235160065990416 0.021917394824199198 0.0024997046445361356 0 0 0
32 1 0.005 2500 0.06637584392821029 0.02337929352340791 0.002499704664489693 0 0 0
83 1 0.005 2500 0.07870942356716176 0.021347912298726016 0.0024997046445321084 0 0 0
44 1 0.005 2500 0.08318501231816011 0.02399358374608888 0.002499704188118833 0 0 0
39 1 0.005 2500 0.08806405678967467 0.02281305167757259 0.002499705025415078 0 0 0
11 1 0.005 2500 0.09706242555744667 0.02260210016617394 0.0024997103272956485 0 0 0
42 1 0.005 2500 0.003114620466990476 0.02453468138032846 0.0024997046443570392 0 0 0
192 1 0.005 2500 0.0171812146608382 0.02449660803991718 0.0024997040601544844 0 0 0
94 1 0.005 2500 0.04080509629030698 0.026318126646379725 0.0024997046444442143 0 0 0
196 1 0.005 2500 0.07604324725332488 0.025752713303555608 0.002499704644473899 0 0 0
147 1 0.005 2500 0.0052458685813333876 0.029175680645505582 0.0024997046445700316 0 0 0
73 1 0.005 2500 0.018721727599613523 0.029274955787628815 0.0024996807782967615 0 0 0
95 1 0.005 2500 0.023741946646088512 0.02703063934131336 0.002499704381360369 0 0 0
115 1 0.005 2500 0.029000187146886323 0.02847504958130701 0.0024997894819395188 0 0 0
63 1 0.005 2500 0.08859946639653901 0.02927897834711799 0.002499693619439707 0 0 0
93 1 0.005 2500 0.09746033545560757 0.028156522615825165 0.0024997046444737996 0 0 0
157 1 0.005 2500 0.011555629853719353 0.031503002794313326 0.0024997046234353703 0 0 0
57 1 0.005 2500 0.03804917354759152 0.031700321133472896 0.0024997046444739587 0 0 0
74 1 0.005 2500 0.06058418275535694 0.03218819252616898 0.0024997046444739024 0 0 0
38 1 0.005 2500 0.09332412531193623 0.030990452278711025 0.0025002018207629134 0 0 0
28 1 0.005 2500 0.007116209443348901 0.03396669508196458 0.002499704644473902 0 0 0
119 1 0.005 2500 0.016168840679587182 0.03357586823464549 0.0024997240708488034 0 0 0
106 1 0.005 2500 0.06833680080438126 0.035768259870813786 0.0025165815045308684 0 0 0
170 1 0.005 2500 0.09743149405853362 0.03384464197775541 0.002499781592261206 0 0 0
158 1 0.005 2500 0.0031752676992945136 0.03778482278074261 0.002499704644473902 0 0 0
78 1 0.005 2500 0.012879709192453929 0.037379055829300276 0.0024997046444739024 0 0 0
82 1 0.005 2500 0.02031751725570618 0.036490117355665104 0.0024997046444739024 0 0 0
130 1 0.005 2500 0.04059721920154558 0.03649195130444104 0.002499704644473902 0 0 0
163 1 0.005 2500 0.08718805935855148 0.03789513198336908 0.0024997099126052875 0 0 0
177 1 0.005 2500 0.09272294892704835 0.036575656488764555 0.0024997038505927822 0 0 0
142 1 0.005 2500 0.026526165914008124 0.041186570010494764 0.002499704644473902 0 0 0
41 1 0.005 2500 0.03269657061366309 0.04164673174914126 0.0024997046444739045 0 0 0
122 1 0.005 2500 0.060662192022341105 0.03994575187642033 0.0024997046444739024 0 0 0
118 1 0.005 2500 0.07152692002279472 0.04095647072813977 0.0024997046444739024 0 0 0
71 1 0.005 2500 0.08317335139503505 0.0409018993642863 0.0024997063521118557 0 0 0
156 1 0.005 2500 0.09261805872668012 0.04158562052022999 0.0024997046417300005 0 0 0
125 1 0.005 2500 0.003354192508970783 0.04392013718790982 0.002499704644473902 0 0 0
151 1 0.005 2500 0.06487520570445933 0.04410088798288453 0.0024997046444739024 0 0 0
43 1 0.005 2500 0.07855237041016726 0.04300966656206239 0.0024997045909102324 0 0 0
8 1 0.005 2500 0.08785036413422193 0.04345806460825791 0.0024998185271009627 0 0 0
171 1 0.005 2500 0.09746651808610815 0.043315029553327715 0.002499491577491256 0 0 0
111 1 0.005 2500 0.028687004927921842 0.04788149364986912 0.002499704644473902 0 0 0
100 1 0.005 2500 0.0612044879109632 0.04807544915646458 0.002499704644473902 0 0 0
76 1 0.005 2500 0.08334593810006104 0.0478622201566846 0.0024997178295096175 0 0 0
90 1 0.005 2500 0.09238357976613636 0.04663300918883531 0.002499704735481605 0 0 0
155 1 0.005 2500 0.0971298275459095 0.04830837369279698 0.0024997046444738906 0 0 0
81 1 0.005 2500 0.0038441505445044434 0.049061244006835446 0.002499704644473726 0 0 0
86 1 0.005 2500 0.01677325660799364 0.051668938168777705 0.002499704644473902 0 0 0
136 1 0.005 2500 0.07699172104491034 0.05022786009698913 0.0024997046444739024 0 0 0
1 1 0.005 2500 0.0895493093890651 0.050840011669774254 0.0024997031404909225 0 0 0
173 1 0.005 2500 0.023186043504842123 0.054000735726443455 0.002499704644473902 0 0 0
52 1 0.005 2500 0.053849552781227744 0.052535084722325424 0.0024997046444739024 0 0 0
75 1 0.005 2500 0.08461804521483048 0.05285974887200244 0.0024997046444775518 0 0 0
62 1 0.005 2500 0.09697828833769258 0.05332654894758281 0.0024997046444741357 0 0 0
6 1 0.005 2500 0.007745684371711888 0.05590580199479391 0.002499704644473902 0 0 0
165 1 0.005 2500 0.030857531295710464 0.05529115521022217 0.002499704644473902 0 0 0
69 1 0.005 2500 0.08118678523414362 0.05681257021004721 0.0024997046444738056 0 0 0
27 1 0.005 2500 0.08698734022255748 0.057316553207101543 0.0024997046444738646 0 0 0
188 1 0.005 2500 0.09239912048699696 0.056763222168823894 0.0024997046469032312 0 0 0
89 1 0.005 2500 0.004009418604008358 0.060165471855216805 0.002499704644473902 0 0 0
108 1 0.005 2500 0.018363906327023997 0.05737664313028922 0.002499704565818875 0 0 0
110 1 0.005 2500 0.023213368534294825 0.05986527280966687 0.002499709706978859 0 0 0
67 1 0.005 2500 0.05708625636234367 0.05771402447897484 0.002499704644473902 0 0 0
46 1 0.005 2500 0.07249963142982478 0.0593768897988205 0.0024997046444739024 0 0 0
154 1 0.005 2500 0.09743596495992192 0.05839955764831179 0.002499704644473625 0 0 0
134 1 0.005 2500 0.028759134699054455 0.061037265751675875 0.0024996845290302465 0 0 0
31 1 0.005 2500 0.07845621703737987 0.06103637804976432 0.0024997046444739024 0 0 0
23 1 0.005 2500 0.08715892571957876 0.062338111660517365 0.0024997046444735103 0 0 0
133 1 0.005 2500 0.09241344635050336 0.06196081303062705 0.0024997045938356436 0 0 0
140 1 0.005 2500 0.006190018629031233 0.06557419556819259 0.002499704644473902 0 0 0
124 1 0.005 2500 0.014353861623850295 0.06410200463587931 0.0024997046444739024 0 0 0
92 1 0.005 2500 0.07496282858411765 0.06465178834978412 0.002499704644473902 0 0 0
141 1 0.005 2500 0.09707407312050301 0.06382803158728871 0.0024997047778279134 0 0 0
129 1 0.005 2500 0.02852842429142414 0.06698211231459805 0.0024997107698958706 0 0 0
72 1 0.005 2500 0.048786116584962 0.06687004321176608 0.002499704641956003 0 0 0
168 1 0.005 2500 0.05406798408799768 0.06819836625750987 0.002499704648389641 0 0 0
16 1 0.005 2500 0.05983918301984677 0.06827251612938336 0.0024997046444739024 0 0 0
184 1 0.005 2500 0.06538489704932614 0.06987075773336723 0.0024997046444739024 0 0 0
87 1 0.005 2500 0.07117269143021121 0.06977230326506419 0.0024997046444739024 0 0 0
137 1 0.005 2500 0.09724625071767393 0.06890574931969957 0.00249970463868165 0 0 0
166 1 0.005 2500 0.01715816725044608 0.07203194858620074 0.0024997048409962303 0 0 0
59 1 0.005 2500 0.02946124880379677 0.0722072886629647 0.002499460268667097 0 0 0
51 1 0.005 2500 0.08713841141956039 0.07000660437990477 0.00249970464447016 0 0 0
4 1 0.005 2500 0.09346942379746757 0.0721906849309726 0.002499704652421971 0 0 0
10 1 0.005 2500 0.011546391608714434 0.07454334579864651 0.0024997046444739024 0 0 0
66 1 0.005 2500 0.021362018112717145 0.07539274179680354 0.002499700464050576 0 0 0
191 1 0.005 2500 0.04294520015609676 0.07296090393867202 0.002499704644473788 0 0 0
174 1 0.005 2500 0.05974675926417925 0.07407430574455583 0.0024997046444739024 0 0 0
37 1 0.005 2500 0.08959389095859098 0.07539480946948365 0.002499704642204399 0 0 0
176 1 0.005 2500 0.006030464301943171 0.07763528263293376 0.0024997084886588315 0 0 0
18 1 0.005 2500 0.016303048189288603 0.07706498239149132 0.0024997047208487324 0 0 0
34 1 0.005 2500 0.03193495045980473 0.07878017971690227 0.002499700410272116 0 0 0
126 1 0.005 2500 0.04638060220291031 0.07678460091607811 0.0024997046444740394 0 0 0
21 1 0.005 2500 0.08127046719272436 0.07626960189318312 0.002499704644473902 0 0 0
145 1 0.005 2500 0.09451099958614421 0.0773863017139679 0.002499704644473902 0 0 0
12 1 0.005 2500 0.0025997772718244455 0.08127383988987978 0.0024997035528483806 0 0 0
143 1 0.005 2500 0.023788083941846918 0.08066748419848664 0.002499706209870981 0 0 0
146 1 0.005 2500 0.03879865116126233 0.08046611403843022 0.002499704644471935 0 0 0
99 1 0.005 2500 0.05050624729485861 0.07966392662682698 0.002499704633858746 0 0 0
98 1 0.005 2500 0.05901487190401992 0.07925220157923614 0.002499704643834844 0 0 0
56 1 0.005 2500 0.06489999634232044 0.07982805477573245 0.002499704609172881 0 0 0
25 1 0.005 2500 0.06976417582736533 0.08266526942965083 0.002500172967884187 0 0 0
138 1 0.005 2500 0.02842245126696688 0.082574558401878 0.0024997628996707567 0 0 0
9 1 0.005 2500 0.03341650264568108 0.08402307145311344 0.0024997362650779524 0 0 0
48 1 0.005 2500 0.045184737542457845 0.08219261014550586 0.0024997046444739024 0 0 0
150 1 0.005 2500 0.054776534311886435 0.0823808806526462 0.002499704624649072 0 0 0
60 1 0.005 2500 0.08083826884331895 0.0828695480557262 0.002499704644473902 0 0 0
178 1 0.005 2500 0.09030640276145115 0.08205356250074684 0.0024997046444739024 0 0 0
144 1 0.005 2500 0.008146347975659225 0.08595302860670045 0.0026736746024084296 0 0 0
120 1 0.005 2500 0.01496312373089175 0.0869413169869688 0.0024997046444739024 0 0 0
186 1 0.005 2500 0.024584287767322615 0.08618260669148682 0.002499704589881125 0 0 0
197 1 0.005 2500 0.037033469947915613 0.08758617178270858 0.002499700097127782 0 0 0
180 1 0.005 2500 0.05743863397831645 0.08773276635085525 0.002499704644760503 0 0 0
49 1 0.005 2500 0.07560108186105255 0.08492143451633942 0.002499704644473902 0 0 0
198 1 0.005 2500 0.09740649858831653 0.08660584305499582 0.0024997046444739024 0 0 0
97 1 0.005 2500 0.029279084533345302 0.08863460843979783 0.0024997046043550033 0 0 0
194 1 0.005 2500 0.042280614229447705 0.08777477919350928 0.0024997046444739024 0 0 0
19 1 0.005 2500 0.05116658558781981 0.08822840416362626 0.002499705036024672 0 0 0
3 1 0.005 2500 0.06420974548945454 0.0903984286278406 0.002499704644469587 0 0 0
114 1 0.005 2500 0.07640781613977385 0.09046597875741323 0.002500472724702078 0 0 0
162 1 0.005 2500 0.08772552083730599 0.08987103190669625 0.002499704644473902 0 0 0
189 1 0.005 2500 0.09313828558484358 0.08957780102984973 0.0024997046416232694 0 0 0
107 1 0.005 2500 0.002910893356188292 0.09166855516730896 0.002532255503619384 0 0 0
14 1 0.005 2500 0.008768045714767593 0.09167650099881501 0.002499681030535144 0 0 0
200 1 0.005 2500 0.023514940440152916 0.09269608471214447 0.002634880119689341 0 0 0
13 1 0.005 2500 0.033198495668634836 0.09197745141263196 0.002499704644473902 0 0 0
5 1 0.005 2500 0.05361945875822595 0.0927095741454163 0.0024997045284397765 0 0 0
164 1 0.005 2500 0.05920713304030758 0.0927061009136335 0.0024997046443017467 0 0 0
190 1 0.005 2500 0.07230694332901175 0.09362625331143458 0.002499699449694819 0 0 0
7 1 0.005 2500 0.0823358022158519 0.09184676575514773 0.0024997046444739024 0 0 0
40 1 0.005 2500 0.09749459247976161 0.0921187974424666 0.002499704647475923 0 0 0
112 1 0.005 2500 0.0031121239147199322 0.09694848974524112 0.002499704644474921 0 0 0
64 1 0.005 2500 0.008517683238245703 0.09678757237454358 0.002499691037684619 0 0 0
195 1 0.005 2500 0.014006814916587522 0.09466967027404104 0.0025579038772191192 0 0 0
152 1 0.005 2500 0.030418171964631556 0.09619859555353741 0.002499704644473902 0 0 0
121 1 0.005 2500 0.035865579075532936 0.0963129268236104 0.0024997046444739024 0 0 0
131 1 0.005 2500 0.04100245845685527 0.09681098474688267 0.002499704644510711 0 0 0
70 1 0.005 2500 0.046044699133726254 0.09663407797377034 0.00249970464443625 0 0 0
54 1 0.005 2500 0.09183333899689788 0.09451668852573382 0.00249970464447396 0 0 0
161 1 0.005 2500 0.05112881029769538 0.09744894215334107 0.002499704644473902 0 0 0
132 1 0.005 2500 0.05625846233817258 0.09744102175220783 0.0024997046444739024 0 0 0
102 1 0.005 2500 0.06198003956907015 0.09716964086250234 0.0024997046444739024 0 0 0
104 1 0.005 2500 0.06884424966676048 0.09744522159763569 0.00250065179815919 0 0 0
116 1 0.005 2500 0.0754815504176152 0.09749392334207228 0.002499704741866598 0 0 0
80 1 0.005 2500 0.08080846989655208 0.09695206626069447 0.002513821192068395 0 0 0
2 1 0.005 2500 0.08766811669675462 0.09738080854360434 0.0024997046444738165 0 0 0
175 1 0.005 2500 0.09623797627865308 0.0972685114748489 0.002499704644473902 0 0 0
68 1 0.005 2500 0.09728269082017062 0.03858059013030206 0.004096651258135159 0 0 0
185 1 0.005 2500 0.08435350246782454 0.04439489060926036 0.005958600410839942 0 0 0
35 1 0.005 2500 0.036113803703279816 0.04959884335869182 0.0025638415934778657 0 0 0
65 1 0.005 2500 0.03376676182052248 0.06942063540238513 0.004330379619681211 0 0 0
167 1 0.005 2500 0.017974902514778537 0.09220331526417236 0.005094868116324008 0 0 0
172 1 0.005 2500 0.06500307938399427 0.0025899453753091962 0.006170898062009913 0 0 0
105 1 0.005 2500 0.004769204753571281 0.09566865901339777 0.007895247853670262 0 0 0
113 1 0.005 2500 0.0662845245400635 0.02556527973688873 0.01607285078575466 0 0 0

Velocities

148 0.01058395315471694 0.004958090153901655 -1.6079727859073388e-09 -1.9814826413917963 4.232944042153438 -5.3740624763341724
96 0.029523276845214583 0.0013262977853530657 -1.0147418551873012e-12 -0.6185541678387814 11.8279323533993 -12.030764058146122
17 -0.0003089748618172858 -0.003247613764203466 1.5372057941794366e-08 0.9557391412685259 0.011201656083441678 -32.27924235910669
139 0.04384048859783277 -0.006419677283275135 6.237351985079997e-09 2.660310827033168 17.67395699708431 7.591339745021839
153 0.036107478717312666 -0.005165386162373114 -7.265197936109359e-15 1.9260820970218904 14.45955616408093 -12.231526245796747
160 -0.01806026160117505 0.008740679240012298 2.0937464126613642e-14 -3.4894850672673856 -7.294301661610745 -10.364688920930394
159 -0.011260306177148975 0.007171992818729935 2.2873627104442984e-15 -2.871253407739328 -4.501965159173008 9.925420826200302
20 0.057004092306469224 0.02978073616918272 0.0005675995789933597 -12.31667574456739 23.078398996285966 -16.810286816061218
77 -0.04005535234471553 0.014137678060306136 -0.001278940274500062 -5.68024859561581 -16.036358034094143 15.491438084712488
182 -0.01742847757335164 -0.0001550459694180405 1.1945222499645927e-14 -0.45737214195176573 -7.237234593894044 10.794619693207453
24 0.027055328400008415 0.012656578701832859 -7.265205085900243e-15 -5.231790978057216 10.625794042414388 11.817989758065204
101 -0.004743868743165403 -0.005149394709285612 0.0006523945251043815 2.192338416172026 -1.9092888158134602 30.493527592159033
84 0.0007553082934410409 -0.004149917295660048 -7.264235207922429e-15 2.0205814073363664 0.15154911917959574 -8.613617821829319
50 -0.015210857085605824 -0.017340030418203412 -7.264234478985228e-15 6.790207029719748 -6.29520898043293 47.15037645261336
26 -0.023576686711204026 0.032494844777667044 -1.4592704180491988e-08 -13.379996583620896 -9.262898740696663 47.101705549785564
85 -0.037451586879577385 0.015901712262929465 -7.264230921587066e-15 -6.419776150630753 -14.80348030881142 0.04519746233621008
91 -0.00725909801764304 0.029741450641082412 -7.263836875624279e-15 -11.863092658743472 -3.0356210950359457 17.21546034693307
193 0.005417670829278918 0.019993957155594717 8.644514853948521e-15 -8.25244236683859 2.8549226565938643 -40.88334709613215
53 0.03130735145269382 0.0033319046244946952 -7.265196983580425e-15 -1.317926672108142 12.482491388608787 -96.9009225830534
135 0.00542444161448602 -0.0010857751369597846 -2.281804423117678e-13 0.5030326739995945 1.6130403654186563 51.43583329609831
22 0.01661820825510087 -0.010670182759891397 -1.0880302713832222e-12 4.2792658438082825 6.116840290632666 -24.83281809199315
29 0.02614321570926178 -0.01728346534653421 -1.5473432227272193e-11 7.362274431839907 10.383147691114612 19.650813673780462
187 -0.019575884157557108 0.026731161385839464 -1.6479782462508264e-07 -10.577198571530385 -8.06738118559267 -6.53617426321847
199 -0.07425239644408725 -0.0005963906357098194 -0.00937726529488142 -0.5646186077036881 -40.44507126104659 9.436936418977874
123 -0.0801624370851881 -0.023576564450938763 -7.26519916819027e-15 9.907774367522292 -32.103536171028615 -40.144311314981096
30 0.041695672125178086 -0.00898668821675257 -7.264232607475407e-15 3.5943877068044965 16.665508638648376 -55.78518154938512
179 0.009855415912899622 0.0037158634445347834 0.0002364483215722331 -1.6713991832398583 4.109369157326645 7.233334603211572
127 0.021053433160357387 -0.0252438181837124 8.63854866604217e-15 9.973012247235044 8.354932782971296 -6.4822054716482995
109 0.011191673149247919 -0.024619110930798986 1.0629315601294546e-08 9.8506569204362 4.4198876120543025 -9.962425344493408
149 -0.03228669261561167 -0.05116448427354759 1.2170031026167565e-14 20.22304891560023 -13.58689900505886 35.829198133592975
36 -0.016354728600476938 -0.026734918067005186 -1.2892433265161364e-11 10.662440895988844 -6.510893786916368 1.348964338403465
128 -0.0002876556601828811 -0.07904312553223627 4.289306801917615e-12 31.61685591968592 -0.11533542997005927 -6.583954546609517
47 -0.004197524638826382 0.002408542966296002 1.4129661184538336e-11 -0.8429792223280429 -1.65413084864986 -10.762648817225937
117 -0.011275516512730226 -0.03321179460085571 -7.265203836365807e-15 13.650618585793849 -3.619554003708341 6.840570733417374
183 -0.004728713682380079 0.005076824066673298 -0.0002815135767097459 -2.2913297404356676 -1.8485983287403618 -0.509846597923402
169 0.012672312152974161 -0.007125337844907737 1.7696382649024128e-08 2.761776947945993 5.094180340098633 34.932775426234926
33 0.010986541935616687 0.016630114900681718 -7.82447854798429e-07 -6.6049555475562105 4.391525658322344 -6.973236170881174
103 0.00013575283537157085 -0.00974355312467716 -8.155567835549495e-06 4.046794080039156 -0.10316557724669166 8.134525790153592
88 -0.051895437352993505 -0.009639921890940487 -7.264230842172757e-15 3.979661072163717 -21.05393135129165 28.990658099943232
61 -0.005113982105158388 0.03050360337288697 8.638548454131406e-15 -12.06761814216505 -1.549734176897185 -34.35302794883832
181 -0.0047421038322469035 -0.06110678652744434 -3.204497274844845e-11 23.85888616270562 -1.5239165882734393 -37.01060034212316
79 0.00154060808877729 -0.016341704739947845 0.00016606503077484086 6.437633559292603 0.7003444974290681 -4.77520751578322
15 0.005968423728064165 -0.01059063819281195 -5.697818683739458e-10 4.490858248641664 3.126109859132048 12.50828214667942
45 0.015068466910016133 -0.005734607429146294 6.578121279356547e-06 2.656990555082186 5.5974319360045035 -23.218988845931143
58 0.0015567783286879174 -0.04477544039901401 1.8514545433284e-14 17.785754500681893 0.5809692451974022 32.3927225103982
55 0.0009787432006964176 -0.027527531642241164 -3.4973184525310836e-10 10.934404053835305 0.3574128393446283 21.638679855360945
32 -0.024458671984466815 -0.010128023309040493 1.9899059988237602e-07 3.744726881191478 -9.85681696781115 31.700853821640067
83 -0.011226958934521927 -0.001159443637526749 -4.4625211624560987e-10 0.3790701322845953 -4.3613450982619275 18.67085564179278
44 -0.0035191624311578396 -0.002670205726993112 -2.7504867656609922e-06 1.1871109697777382 -0.8617124185312989 -22.3003248050643
39 -0.0016894188941506594 -0.009062211863169543 3.6181783399238434e-06 3.5513827775037825 -1.2459106694527082 20.489448408002417
11 -0.0001894389496749867 -0.001779796280930022 0.00026914448813660007 0.6061425165267023 -0.03894273959336476 1.7350734390937754
42 -0.0024273904769756475 -0.025150063240741254 -4.116319627371034e-09 10.151125372711332 -0.9026196445326831 -5.694764184379888
192 0.0029914640469921325 -0.0038622107441343458 6.7872379909883426e-06 1.5417018314821427 1.1997998676238357 1.4848117634446818
94 -0.007982672487962406 -0.030788726294521382 -3.479932404584105e-11 12.570755297285011 -3.471195279691581 -34.23839658544708
196 -0.006687183608763615 0.0062399120285067285 -2.5378120408967555e-14 -3.0685963627625137 -2.9519263475285076 -12.450745526954176
147 0.017816840585855132 -0.028551944824443523 -5.842909814745953e-10 11.434037413859452 7.307204954852575 -9.3910095163656
73 -0.005822683816632967 0.000954140470803789 0.0004753819774269811 0.02520810092673689 -2.4055662836646596 -4.19656246719326
95 -0.007353223014565975 -0.0998076690553013 1.5308171713059885e-06 40.54508809624634 -3.1510287264654675 -39.636058476973034
115 0.01091919006082774 -0.12385338468657814 0.0008047380712657699 49.47673088716804 4.348418719499125 20.320370264204374
63 0.009621784655690488 -0.029281286982942335 -0.0002465881430223142 11.78552057307265 3.142212942686099 -11.172140005935109
93 0.0033704831946532936 -0.003651472850646024 5.858859989428852e-13 1.3856436330498658 1.3725860673445558 0.5845837964880162
157 -0.0051509797090674185 -0.044507220129866895 -2.118876834885876e-08 17.807990350730474 -1.9152626318255888 -26.873570007444
57 0.032034697775941194 0.013791483049610363 1.930588326164078e-12 -5.417417466148169 12.90213523406151 7.148863949279999
74 -0.14113865515965462 0.0041544959605199685 -7.265201637853323e-15 -1.470137239233928 -57.28834437814551 37.75443675313785
38 0.01198050503809665 -0.04225332600621068 0.0007487011088041087 13.109542643573723 8.81654582931407 8.29556921436407
28 0.00887911188387509 -0.029669801088780732 8.638555969846483e-15 11.633022991945566 3.3292861040633484 29.489017062763715
119 -0.015261371708966265 -0.002912628208599469 -0.00047506946410289875 0.6827193318324234 -6.28271558532897 4.228322283083852
106 -0.11803446701184465 0.025413455235564042 0.0011025485797027412 -5.206737841151691 -52.57378180030803 4.642671767835923
170 -0.0020644621095601283 -0.014087330915285976 0.0030913116349588214 3.672484789636031 -0.7103240966744454 3.2509416073811614
158 9.018536807270665e-05 -0.02632457817556059 8.637590249316848e-15 10.608515481262426 0.09992345579516579 -27.76858779250591
78 0.02291832575701519 -0.04807408582001523 -7.265194996956154e-15 19.289514004093757 9.166903473710402 35.687183161277886
82 -0.03648560569578847 -0.05524473052906566 -7.265204370397091e-15 21.592438984512615 -14.15673269998215 28.241964042344996
130 0.04045918851609636 0.0025220524874175376 8.63855488030226e-15 -0.9850076316904962 16.251848352148933 44.38145996649516
163 -0.010965360329648087 -0.008778165424310772 -1.5941820900990042e-05 3.495604516658136 -3.928681138601736 -9.907734387507539
177 3.929769304817554e-05 -0.0032802278547849686 7.915367681940507e-06 1.1993050151949807 0.04999002465562472 -10.339879516493578
142 -0.0027054510931627464 -0.0798793432761076 8.638549435481087e-15 31.953414178663817 -1.0874385950638596 54.91242710796118
41 -0.04149128610279874 -0.051797285786608506 1.8546150556322286e-13 20.805731013134793 -16.64554279108676 27.756849643457066
122 -0.03395669202948324 0.01725592862014361 -7.264238998581957e-15 -6.767720913936059 -13.632299372612996 -71.46114692444782
118 0.016187931767156636 0.015399172630809203 -7.265201529921913e-15 -5.944611461170828 6.985292128164415 -44.343141524927965
71 -0.011958439478153426 -0.007094055647131704 4.698400776866889e-05 2.876177922223338 -4.797458181058743 10.572199477333754
156 0.004462723375070042 -0.0021086840625557397 -4.474216979640061e-07 0.7391664511206715 1.8939270044386938 2.6698350935892234
125 0.015586989456321167 -0.009854548407654469 8.640175790317857e-15 3.934755582156841 6.252615678751641 9.692708407299662
151 -0.015881853000008626 0.023852650501973053 -7.264234963517996e-15 -8.730794204839508 -6.616254986898038 41.183831775640705
43 -0.030479581308525763 -0.026495404161452293 -1.1314246326629268e-06 10.703232329569587 -11.727044539296916 -0.7658642373266917
8 -0.007899534644419991 -0.026693470995651912 0.001540929717309435 10.426475521545417 -4.009036090731059 -14.224089059124228
171 -0.00731555847514964 0.015427044875123272 0.0027257391648783185 -4.925034303359024 -2.9610095921109925 1.031446996888524
111 -0.0400250269226106 -0.0093905168599972 8.638546306615045e-15 3.9438198832305744 -15.69786293506817 -18.338104870995686
100 0.102803458902177 0.02871144725760716 8.637592863180532e-15 -11.489484723706223 41.14402556988645 -125.85975011507807
76 -0.013457405218578326 -0.004639073834116574 0.00022200977233337025 1.4389029860797016 -4.834824557388489 15.88965573943345
90 -0.0009640830343353889 -0.00877331529822168 -8.065811281455201e-06 3.5373835943537713 -0.37025915780214097 5.33842408828605
155 -0.004895811104119509 -0.001325735161568837 -5.342912944622364e-13 0.5426747141757382 -1.8375233201133014 2.9361370879746898
81 0.027164199837671887 -0.01777584509361663 4.2318679389156356e-11 7.2032920281467545 11.18031039991144 -4.755602123799065
86 -0.030601511174065336 0.03134087142054366 8.638551000903578e-15 -12.694618607099864 -12.401583329108416 -20.65657194980024
136 0.013588065572124186 -0.03896045452787698 -7.265192834056657e-15 15.583448234077313 5.436308464539977 63.185860452084626
1 -0.020854812220674077 -0.013276415295641294 -1.9958804070032403e-06 5.230614058123631 -8.378804732751915 4.4505754707102705
173 -0.017219184990261552 -0.021892930237005923 8.637584713448958e-15 8.94433839500132 -6.980406277930635 -38.36040432116553
52 0.06657121837739849 -0.1268424202465491 -7.216882687250357e-15 51.02476315730595 26.31565787225026 -5.874143115412281
75 -0.011583949649238177 -0.001580387280556349 4.2497544249432617e-11 0.3886877634545306 -4.503457890793884 -13.684730361179945
62 -0.008002897030499346 -0.0007711691935049734 -4.904822358009248e-13 0.1740687713735316 -3.2144290238346938 -1.6889600038933823
6 -0.07639862748208343 0.03909360016047345 8.637582822605107e-15 -15.645349405846616 -30.563630490272452 27.600791106505
165 -0.06596237385635251 0.04503377356707078 8.637588010918413e-15 -18.100329732274382 -25.766138668140695 29.495658322233727
69 -0.0037507962389880154 0.016044341039679454 3.3046831171441327e-13 -6.168732945263064 -1.2606202722657858 0.9076441806734354
27 -0.009868894703839722 -0.00013859213687355374 -5.677650751096909e-11 0.06524845539255841 -3.9497366559839215 13.327647824005549
188 -0.008520015894561618 -0.0002842543474822142 -6.52488522418779e-08 0.12354437565098121 -3.4110587866678923 -0.09094299478728761
89 -0.0010019990849633401 -0.007963107619040474 8.120565562185905e-15 3.99931866335816 -0.6031890193544285 -24.174190629271454
108 -0.03805324367323564 -0.043433100588132476 1.0114505222604635e-06 17.373196519320057 -15.221178311256548 -14.27477568440481
110 -0.02882335646555557 0.002325304246010976 3.1977623524604774e-05 -0.9300114102120821 -11.653064968551073 30.93217399466797
67 0.05041937056794532 -0.08391015453162334 7.687562818173899e-15 33.53797090754625 20.157803220065592 14.409032618739438
46 0.009648677137088727 -0.0012879670133906435 -7.265196947930517e-15 0.4603270806385982 4.824028508788545 -64.10906173280995
154 -0.001026796111913014 0.001912557415841147 6.799564077308456e-13 -0.7690986108100863 -0.4064976321943718 1.322201026990019
134 -0.03623074412179075 0.03853237404763827 -3.61363917251893e-05 -15.407908435362671 -14.447935122471309 -8.704528759381855
31 -0.004796044826280932 0.009491110649612366 -7.265194025259905e-15 -3.9039172955186796 -1.930757430420953 -2.3637028727115377
23 -0.007508729036937346 -0.0001903067233782631 2.975478035441021e-12 -0.1888109589790846 -3.034976121291633 -16.209375609218093
133 -0.0036698595158269126 0.0003541208024423144 -2.749542704649512e-07 -0.46840508723375296 -1.2334026144789179 2.768927711907391
140 -0.02032455404401698 0.025035939064704044 7.715578609516077e-15 -9.956344055759763 -8.145169474408355 14.42079573347134
124 -0.01708277558490152 0.019512045127100686 -7.265201392208395e-15 -7.753841028726692 -6.7395188122089005 -7.613268559568318
92 -0.004394764212702415 0.003836186024341958 8.63758669500386e-15 -1.6541305762424943 -2.094462993553204 39.195186499903414
141 -0.006256664577065883 0.01328957629339292 9.57901703883011e-07 -5.517481180872417 -2.360670801665944 5.951248414000557
129 -0.11798435984872392 0.001472480845758104 -3.080112058453041e-05 -2.6117091730494484 -47.897324203372065 -33.24443828728959
72 -0.010538156613854127 -0.027743197727564953 2.0944251847169828e-09 11.000741439897647 -3.2285876714695774 5.885597168458345
168 0.005976643256275273 -0.013703206530789287 -2.865752461243598e-08 5.478417513862084 2.646009053579843 10.800120711308244
16 0.0104584135491801 0.04526513630799711 -7.265200332289579e-15 -18.62211001207735 4.436914847797047 37.22475647871562
184 0.007734898698327308 0.05560272455874926 -7.264238135945736e-15 -22.05895821017415 2.9915620219932757 -33.95090138397337
87 0.02650729666202574 0.028037985423481633 -7.264241973598168e-15 -10.83110197112398 9.947525183960542 34.19303745188115
137 -0.0030424127915375924 0.0044023637491678235 5.3619318555880865e-09 -1.786617001398786 -1.9690514037060731 -2.426377204092957
166 -0.03393525409039919 0.03693241002790452 -2.538965458633145e-07 -14.750051260445128 -13.545811973801007 57.76721787147994
59 -0.010483426257312486 0.024276271568566182 -0.0010311652414803703 5.847256800913411 3.9584610367947226 -42.80931831413984
51 0.01667116393946407 0.00405522564167732 7.815104160113716e-11 -1.7588307177726021 6.973783543752142 2.3657177931951305
4 -0.005279141448866183 0.0030508932766443457 -7.4090855313569044e-09 -1.2473184554321675 -2.1804655971605724 14.983543256838663
10 -0.02938112327908277 0.04957856510972326 -7.265203189093543e-15 -19.82476949002449 -11.762695641201104 -48.19735819735526
66 -0.06651718948320925 0.006061761543309666 3.6382344238826156e-05 -2.558568291638647 -26.555452438786787 -12.070500644879644
191 -0.014851966628155041 -0.0068634760884145616 2.9201141532900666e-13 3.0237219604388077 -6.509959485137126 -7.004041623261685
174 -0.1474782407937351 0.01240476467778269 -7.265194003277828e-15 -5.893962054584093 -59.159214960464894 22.813407774573896
37 0.012422210563530125 0.029465541204798516 1.4160033746460433e-10 -11.897151732097441 4.416780785264722 20.001362921222768
176 -0.003926384173322585 0.01725367839253876 -1.9236527560301058e-05 -6.892745873462223 -1.5968063510709143 -2.3840227076982394
18 -0.03075465684798525 0.04542477092116754 7.58403473145808e-07 -17.857228440409838 -12.130806828900171 23.32723936532861
34 -0.05570084777880129 0.004066490322281603 -5.131704068257641e-06 -1.4693850266918487 -22.335434906305693 -7.9758483623490655
126 -0.02432616572027981 0.007986565450458907 2.9709849113312785e-12 -3.7910501254942073 -9.622850439698029 -0.5643710596955938
21 -0.03124329402442645 0.030030779762468755 8.638548212756238e-15 -12.015865797764283 -12.539738934727074 -14.538539174638807
145 0.01801413504812824 0.006108236051126498 8.63855657136721e-15 -3.5497269564525396 7.283965643282197 -16.07903305087909
12 0.008335177728561325 0.028940762123097038 -9.171300266761473e-07 -11.391313199361624 3.37319721473779 5.707484796037205
143 0.07868664988056609 0.01468867894790413 1.0642758565156989e-06 -6.087063927856777 31.536205847823105 -21.126152140300967
146 0.04684381892573099 -0.005537261455415275 1.5416008588743836e-11 2.0565476386646577 18.86188744022766 -10.093853457386283
99 -0.03709722913870975 0.02708633745633568 2.0688954709494339e-07 -11.055773746359177 -14.493951494529927 17.11713897808266
98 -0.06511807403420794 -0.09505544989193503 -4.020695523850623e-09 38.04408003252662 -26.147399126480668 -34.187934914021675
56 -0.007855515617543557 0.010381773438218642 -1.8534923396993182e-07 -3.7196661960862576 -3.1601282164345026 93.86955045293459
25 -0.015433887537846143 0.13595713377434648 0.0038752946221423503 -54.39138419030364 -6.173339362294968 -34.01277052709327
138 0.007393300868447286 -0.05433853309318296 -0.0004749479833212894 21.734585117745507 2.9579347971499126 15.529506438575627
9 0.01520186305732919 0.016626382854800247 1.0937294302972841e-05 -6.531236261838876 5.944435181541016 1.138590660980992
48 0.05972768680264727 -0.025276279271537336 -7.265200786804e-15 10.098546207113163 24.58495826144931 -24.73677449609915
150 -0.025848999663930262 0.017683884594136702 3.4195115223106e-07 -7.137988261112022 -10.175274705939868 -22.724774752239025
60 -0.005387260718598755 0.023247962540675127 8.650892363758656e-15 -9.34970811861482 -2.7958170579467523 28.796817894382386
178 4.78366972376309e-05 -0.009767810345671897 -7.265203685823941e-15 3.931411605375011 0.03225430079090488 26.022941205116403
144 -0.06422127853538216 0.02992335488961699 -0.03277224284601934 -31.14429062899676 -15.701095663987733 -23.790850160612536
120 -0.018152634325995 -0.01345474682085347 -2.2233878585705044e-15 5.458303469131831 -6.864518865495484 -39.4761109903987
186 0.025901586962777414 -0.050948506205836686 -3.284215922213006e-07 20.500625741084917 10.270277334430672 29.638123325957434
197 0.036522545137761216 -0.002692396061114061 2.815449595966582e-05 1.0683334897118422 14.630966482965887 -12.34532058314971
180 0.020569737245535548 -0.007920400042091833 -2.7214619071830652e-09 3.614676819031284 7.703119078990402 -23.296723773417263
49 -0.037891071676248285 -0.004447985089056935 8.63933419809639e-15 1.5342273154790897 -15.79282857001424 37.96496363622286
198 -0.0014116122165088905 0.004737415814283519 -7.265197103670042e-15 -1.827129138493736 -0.7947249315829078 1.1464267543609497
97 0.01913030331716292 0.011441788382458039 9.114126954535568e-08 -4.154856108378874 7.126580703980672 -0.3208017743227827
194 -0.00011462058032074961 -0.028236086564927463 -7.265201666368521e-15 11.218006259967172 -0.26706722962083856 -26.092174381555047
19 0.016946404051236666 -0.002677999660831353 -7.831715209465328e-06 1.9667358308181466 6.72921257294944 47.33525673418244
3 -0.09768286371723817 0.016026718711193502 -1.9664645042925694e-11 -6.2358318757450215 -39.280141095589784 -48.52861366683255
114 -0.033167061920740176 -0.01290196386325006 0.003142302458130927 7.639916615486399 -16.09100599274477 -15.970931856048454
162 0.009427037274198434 0.002992888443517319 8.56609639287058e-15 -0.8139724410624097 4.4674412718193155 8.5581096485319
189 -0.00318188169198604 0.003729083914802586 -5.077932859130359e-09 -1.492562171075421 -1.7879861085036775 -2.38604087575912
107 0.005196781421972805 0.021950656756510954 0.026346403842147974 -8.67088370282918 1.1569004946464447 3.2741177137921973
14 -0.019277006688902643 -0.0011375213938090672 -0.0005446203421109667 1.1458182360327465 -7.701030667953516 -2.813040317329213
200 0.05156080784995791 -0.020749601904693608 -0.08745976515859022 23.858191447342904 -7.142484766193746 -10.042198988965653
13 -0.00019114097286498493 -0.005688522260813634 8.637582498246405e-15 2.708449686374387 -0.4791123625421317 16.95041145953869
5 -0.009874167351584666 0.025871276802585202 7.622521785670919e-06 -10.312573837777514 -3.953175324654257 45.25080882800391
164 0.016054856661695795 0.006749843044134244 2.8988165197763063e-09 -2.8592542740184603 6.585363770154133 0.18175530946858862
190 -0.033112980102935556 0.009679470948020236 -0.0003622043581662332 -3.7296449376914804 -12.977493539805426 11.936086051449207
7 -0.026336426101841368 -0.02545256034034719 -8.374838290785672e-15 9.972990388248746 -10.903825946300795 3.1494123447809628
40 0.0020115422164864497 0.0004269473827728026 1.884290747148624e-09 -0.17952811284140452 1.0286778196858959 4.242662413667034
112 -0.014502676164962224 0.026605980937658397 1.3525491951270872e-12 -10.587250424136824 -5.806705096903448 -14.840484362021146
64 -0.003737411831665777 0.013519726706569065 0.00025955221987470495 -4.768628998804915 -1.4765594958728643 -1.4911605612026397
195 -0.03585087848918583 0.04682963207738709 -0.03419207043202337 -16.413284886917058 -10.5483034640525 -23.900515967449806
152 -0.01089772558776792 -0.010332212985205284 8.638549808087248e-15 4.288588909677009 -3.7495496225213487 21.305760148097093
121 -0.005249919760172456 -0.0012378542633113452 -7.261602845893651e-15 0.5457820143689427 -1.706639098625977 -9.048353070429709
131 -0.0035316500501395244 -0.007907145885227087 -7.969565985283485e-11 3.0861668214581988 -1.1695397963724943 10.361823134447548
70 -0.0010948594943137656 -0.008304979927842569 6.899172712112315e-11 3.368544509535078 -0.5267169281486551 -4.405651179326371
54 0.0015453796779558988 0.0063275959813921265 1.0826750269885343e-12 -2.2522631056987517 0.7672030222590767 6.511039558520606
161 -0.0031631861354163428 -0.0007374121161830888 8.638556110865946e-15 0.1263834695724917 -2.0621047973230904 3.106543553940927
132 -0.002856945604142098 -0.0005326528195744267 -7.264232506959884e-15 0.7891575001880864 -0.9029572518653751 7.896697665311725
102 -0.03652959478317767 -0.007471905258079123 -7.275857824828748e-15 3.0332100402293602 -14.626115116801731 -8.108867989282025
104 0.0394327613455658 -0.03115087734729051 -0.009035452354493238 -10.905869566170683 6.958551428061562 30.326731571158113
116 -0.020506232842332245 -0.001164015201612216 2.9173361657448763e-06 -0.36443601100118495 -8.320741834028427 -8.308040986778408
80 -0.0152004637652773 -0.015228571940643382 -0.021578402380723387 -1.6098471973888961 -0.8294454422926949 -20.44144830279359
2 -0.005882211871987289 -0.0014519436879968778 -8.790434951525083e-13 0.22596816901994646 -2.507636152430542 -2.1620322105342864
175 0.0013129929982727752 0.004305753378418147 8.63855663528892e-15 -1.1305819853173908 0.7104985428974818 1.3363040057654263
68 -0.014815219237870995 -0.0007137471168192926 -0.04157547872311799 -10.916421026843818 9.526554001551652 1.0695222054308258
185 -0.0037314984270964096 -0.001045567517906403 0.002327966754074132 -0.3334985804236137 0.9482130594880573 -8.250810396442038
35 -0.014931644272099562 0.03880303374230723 0.05125740477976365 -38.18055431920606 1.0991793397885394 -35.9185825469908
65 0.04366631276833062 -0.10653835192051977 -0.11336610518107683 15.807723750501289 -11.753133514427972 8.003629946351142
167 0.013812238660876382 0.02086364016182836 -0.05548924921590735 -32.981287999784 -9.645008668011322 -4.234367429379402
172 -0.02512428160440852 0.0028434265033135003 -0.07253827477413254 45.93560264544822 -52.04208560357248 -10.406381191057994
105 -0.03822414349957258 0.3055526215513624 0.019351496579049148 -136.95207723404195 -2.994129894957571 -16.599616257699015
113 0.3855164035122215 0.27177887702592196 -0.4558452338120758 142.74628235116256 355.88306297311277 -175.65380286999164
