LAMMPS data file via write_data, version 7 Feb 2024, timestep = 600000, units = si

2200 atoms
1 atom types

0 0.1 xlo xhi
0 0.1 ylo yhi
0 0.2 zlo zhi

Atoms # sphere

1678 1 0.005 2500 0.0024986720882231657 0.0024995000843055864 0.002499314360040028 0 0 0
1245 1 0.005 2500 0.010226066848533244 0.002499864146606207 0.002499482590974082 0 0 0
1918 1 0.005 2500 0.017234296832318922 0.002498367721487803 0.0024988703736697655 0 0 0
2122 1 0.005 2500 0.02223369647855214 0.0024994809535394545 0.002499659783197061 0 0 0
1570 1 0.005 2500 0.028852091111820306 0.0024992222311001353 0.002499540597671461 0 0 0
1930 1 0.005 2500 0.03385104348816653 0.0024996651845904153 0.00249945788562534 0 0 0
1393 1 0.005 2500 0.038850051662111994 0.002499303198794196 0.0024993925376075774 0 0 0
2005 1 0.005 2500 0.04384900220669457 0.002498924231803474 0.002499647848348872 0 0 0
1144 1 0.005 2500 0.052377374038091215 0.002497793837750626 0.0024994826692712993 0 0 0
1202 1 0.005 2500 0.061232625371942864 0.0024986693050545396 0.0024994107701448807 0 0 0
1879 1 0.005 2500 0.06623587477246966 0.0024998868484928613 0.0024993439184004328 0 0 0
1135 1 0.005 2500 0.0712354451690803 0.0024996997374313744 0.002499501322782591 0 0 0
2017 1 0.005 2500 0.07830362629080999 0.002498958701136287 0.002499281290615372 0 0 0
1205 1 0.005 2500 0.08330277004553588 0.0024990516458806306 0.0024993739191212453 0 0 0
1901 1 0.005 2500 0.08830237646892795 0.002497076381198562 0.0024994342094878702 0 0 0
1265 1 0.005 2500 0.09325117004446548 0.003421475437627348 0.0024993375785250798 0 0 0
1934 1 0.005 2500 0.0025038530941834097 0.0075126219181913525 0.0024997046444739024 0 0 0
1564 1 0.005 2500 0.009535476409104543 0.0074535844166145355 0.0024995615775995884 0 0 0
1965 1 0.005 2500 0.015830599799756647 0.007295308859730229 0.0024989770377895956 0 0 0
1670 1 0.005 2500 0.02081663762111649 0.00787902765574532 0.0024997046444739024 0 0 0
808 1 0.005 2500 0.025543419819115606 0.006246174961633951 0.0024990519250305686 0 0 0
2097 1 0.005 2500 0.03135306526770211 0.006929346441757245 0.002498663836971338 0 0 0
1987 1 0.005 2500 0.03635131612740275 0.006829306709029778 0.0024993300040050503 0 0 0
2058 1 0.005 2500 0.04135051015162166 0.006828565456923894 0.0024990841206166746 0 0 0
1482 1 0.005 2500 0.04811343186569596 0.005106578498162926 0.002498952549463664 0 0 0
1863 1 0.005 2500 0.052509225580730276 0.007493741644114042 0.002499937611348178 0 0 0
2166 1 0.005 2500 0.056804699306517346 0.004819109816596673 0.0024993123238273005 0 0 0
389 1 0.005 2500 0.06136262283136434 0.007495622387618642 0.002499534399414019 0 0 0
1236 1 0.005 2500 0.069943876267096 0.007339461846602817 0.002499471050115541 0 0 0
357 1 0.005 2500 0.07477051112807638 0.006035065883421358 0.0024990454472984345 0 0 0
346 1 0.005 2500 0.08334845490189344 0.0074977578780309 0.0024995706888285133 0 0 0
1413 1 0.005 2500 0.08834560394312724 0.0074931982754055946 0.002499404071258897 0 0 0
2038 1 0.005 2500 0.09750091506574383 0.006055001080297873 0.002499291510603427 0 0 0
1607 1 0.005 2500 0.006143421298837347 0.01112689997850564 0.002498791421916614 0 0 0
1643 1 0.005 2500 0.01278073570023634 0.011255391015093343 0.0024991714753418385 0 0 0
2076 1 0.005 2500 0.017727813631932668 0.011981039701490387 0.0024997046444632945 0 0 0
1691 1 0.005 2500 0.024926312608040322 0.011206615379636992 0.002498453163365136 0 0 0
1994 1 0.005 2500 0.03125416439483709 0.011928343715836384 0.002499704639508281 0 0 0
1605 1 0.005 2500 0.04065811301478907 0.011779148764620178 0.002498751795591267 0 0 0
1731 1 0.005 2500 0.045615153109491456 0.009436906932910577 0.0024992544079731477 0 0 0
918 1 0.005 2500 0.050008674430241686 0.011821459274189207 0.0024988117325650872 0 0 0
1137 1 0.005 2500 0.056935142192193276 0.009816074414070864 0.00249907650716159 0 0 0
1337 1 0.005 2500 0.06562782742567931 0.010102179934775187 0.002499207077788286 0 0 0
995 1 0.005 2500 0.07407076161093375 0.010983361908304482 0.0026140425715633366 0 0 0
1898 1 0.005 2500 0.07893390987381238 0.009839497235055353 0.0024992508997408306 0 0 0
1698 1 0.005 2500 0.09321282963800681 0.008624588465282832 0.0024995617280186375 0 0 0
864 1 0.005 2500 0.0975020997294707 0.011188785182769502 0.002499363161294854 0 0 0
1687 1 0.005 2500 0.0027037123564403417 0.014803504927751928 0.0024983392626921025 0 0 0
1602 1 0.005 2500 0.009390336901389722 0.014928654790524035 0.002499101196932172 0 0 0
534 1 0.005 2500 0.014505617213531224 0.015946916407528534 0.0024989878003166877 0 0 0
1803 1 0.005 2500 0.02169639458120324 0.015022491786655708 0.0024986482190384393 0 0 0
2155 1 0.005 2500 0.026756705990372037 0.015859319087848874 0.0024997028406818374 0 0 0
2106 1 0.005 2500 0.0360526945632177 0.013724597971226497 0.0024992856231269484 0 0 0
1417 1 0.005 2500 0.04492216488224529 0.01438801865786681 0.0024997611244592854 0 0 0
800 1 0.005 2500 0.05444354692579261 0.014149194403817159 0.002499333167197976 0 0 0
1855 1 0.005 2500 0.061102453091328814 0.012575543177742614 0.0024991696361454435 0 0 0
1546 1 0.005 2500 0.06515701017940514 0.01549787782848943 0.0024996227415995725 0 0 0
1656 1 0.005 2500 0.06957712704980759 0.013166037399360555 0.0024985341615856088 0 0 0
1407 1 0.005 2500 0.07388309465641274 0.01597741552721963 0.002499638731950016 0 0 0
1985 1 0.005 2500 0.0787504472220161 0.014835816812815669 0.0024992283549063994 0 0 0
1366 1 0.005 2500 0.08321459411329353 0.01254645258884967 0.002499704644473902 0 0 0
1143 1 0.005 2500 0.08826564813648397 0.012489743898547182 0.0024991246122345544 0 0 0
439 1 0.005 2500 0.0931350540600236 0.013623453471548901 0.002499335395522539 0 0 0
2066 1 0.005 2500 0.00600570255491005 0.018607693853738373 0.002499698873146264 0 0 0
2150 1 0.005 2500 0.010891248844546075 0.01969742483586657 0.002498309728324361 0 0 0
1471 1 0.005 2500 0.0185385588958064 0.01890089269719963 0.0024988235176541993 0 0 0
1230 1 0.005 2500 0.02352591369685259 0.019675121658026647 0.0024996503426576145 0 0 0
2113 1 0.005 2500 0.031644233440864485 0.016913079904251376 0.002499700323803982 0 0 0
1917 1 0.005 2500 0.03601367185367941 0.019343369037516347 0.0024992417450927415 0 0 0
1925 1 0.005 2500 0.040296838108385497 0.01676537926536742 0.00249943809433569 0 0 0
1189 1 0.005 2500 0.044561486644101575 0.019374446281375222 0.002499684621724114 0 0 0
1210 1 0.005 2500 0.0493164378207135 0.016771058204668475 0.002499137072904351 0 0 0
898 1 0.005 2500 0.05374038056021239 0.019097862143623755 0.002499426284533368 0 0 0
2061 1 0.005 2500 0.058609340201661135 0.016922476941695398 0.0024991147991068005 0 0 0
1786 1 0.005 2500 0.06938669326394618 0.01816235254235165 0.002499589242790258 0 0 0
426 1 0.005 2500 0.08320079159333192 0.018271215726297096 0.002498755169138464 0 0 0
1755 1 0.005 2500 0.08813732013296073 0.017485309896185696 0.00250258001342223 0 0 0
1522 1 0.005 2500 0.09313427927423581 0.0186230729615349 0.002499302786585976 0 0 0
1425 1 0.005 2500 0.09750048672920673 0.016188130852782735 0.002499467476532687 0 0 0
1601 1 0.005 2500 0.0024994587104881804 0.022171034361132824 0.0024997233593490936 0 0 0
2151 1 0.005 2500 0.007559117832198524 0.02342466417200582 0.0024984389984156943 0 0 0
1996 1 0.005 2500 0.01504617244355668 0.022478570233763876 0.0024988457618340463 0 0 0
1615 1 0.005 2500 0.026034943324979576 0.023999317424909915 0.002499087478472223 0 0 0
1886 1 0.005 2500 0.03086846150561136 0.022721897194963394 0.0024993161368199648 0 0 0
1739 1 0.005 2500 0.04067514201312629 0.022519238485742374 0.0024992276802979422 0 0 0
1667 1 0.005 2500 0.04895668649745271 0.02175619957068812 0.0024986285923823096 0 0 0
1388 1 0.005 2500 0.05514633351631506 0.023894119770575355 0.002499408105596575 0 0 0
938 1 0.005 2500 0.063921017881612 0.020340229459242656 0.0024991867034343646 0 0 0
612 1 0.005 2500 0.0601362239679203 0.0236041502107813 0.0024992872870980795 0 0 0
817 1 0.005 2500 0.07068449096821905 0.022971392689651027 0.002924429711137433 0 0 0
1048 1 0.005 2500 0.07517158164019587 0.020807479278177176 0.0024990288771176046 0 0 0
805 1 0.005 2500 0.07974968434657471 0.022815840781195678 0.0024993616845494604 0 0 0
2187 1 0.005 2500 0.08474442521649983 0.02302693736657024 0.002499495083199528 0 0 0
1569 1 0.005 2500 0.08968098107581389 0.022238191840563165 0.0024989865090919504 0 0 0
1120 1 0.005 2500 0.0975002083634176 0.021189548236691533 0.0024995423235120353 0 0 0
2196 1 0.005 2500 0.0024992644388926984 0.027170307293844027 0.002499670355377106 0 0 0
1789 1 0.005 2500 0.010807991123971074 0.027246693511948274 0.002499704644473902 0 0 0
1110 1 0.005 2500 0.01685845529500625 0.02713754970845378 0.0024996546604294516 0 0 0
1176 1 0.005 2500 0.020929634320097274 0.02410097591590297 0.002499704644473902 0 0 0
1611 1 0.005 2500 0.03186280427823248 0.027642900445189068 0.0024990122737800656 0 0 0
1635 1 0.005 2500 0.03560342961356503 0.02432587829548659 0.0024992542171847474 0 0 0
2198 1 0.005 2500 0.039559023246130545 0.027392408832613485 0.0024986942638280025 0 0 0
1360 1 0.005 2500 0.04540957283709221 0.025291255720204058 0.002499704644473902 0 0 0
2095 1 0.005 2500 0.050818044901110665 0.026394665688917504 0.0024991526715469068 0 0 0
1332 1 0.005 2500 0.06598203846638942 0.024895001626304782 0.002498533649322159 0 0 0
1454 1 0.005 2500 0.07120715548466283 0.02792493426432298 0.0024994384748091803 0 0 0
985 1 0.005 2500 0.07572109828165272 0.025776771745138493 0.0024993719859332324 0 0 0
2019 1 0.005 2500 0.08842997766490394 0.02707700682215134 0.0024998420847616907 0 0 0
1682 1 0.005 2500 0.09399776912766972 0.02475740977841306 0.0024994161257395047 0 0 0
1870 1 0.005 2500 0.006627425274517641 0.029989491308285224 0.002498906589818489 0 0 0
1542 1 0.005 2500 0.013905565350561708 0.031171675689586797 0.002499360337169513 0 0 0
1861 1 0.005 2500 0.020659242213560133 0.03038507461850503 0.0024988889640929204 0 0 0
1774 1 0.005 2500 0.02736320893019291 0.02982206110964195 0.002499190944979184 0 0 0
1538 1 0.005 2500 0.04728496517636246 0.02992990980108329 0.0024988805431558655 0 0 0
1530 1 0.005 2500 0.05514793071462106 0.0288926261233107 0.0025001155868752825 0 0 0
1549 1 0.005 2500 0.06164652125939929 0.028368473348347807 0.0024991742262587924 0 0 0
1988 1 0.005 2500 0.06659965940918147 0.029864231281908335 0.0024987490983540634 0 0 0
862 1 0.005 2500 0.08016688083112752 0.028065741769320064 0.0024991035596868792 0 0 0
2159 1 0.005 2500 0.08537959724536275 0.03103630837281738 0.002499356106425838 0 0 0
1404 1 0.005 2500 0.09269353856943148 0.02968625027438685 0.002499059883571801 0 0 0
1578 1 0.005 2500 0.09750207044253997 0.028321409929443885 0.002499981770467992 0 0 0
1715 1 0.005 2500 0.0025004879132916897 0.032826154811796314 0.0024979945592800055 0 0 0
1172 1 0.005 2500 0.006976453049396152 0.03505404478177882 0.0024991705701429847 0 0 0
2003 1 0.005 2500 0.01194329295010571 0.03577019839367441 0.0024984752215375487 0 0 0
2086 1 0.005 2500 0.02240468106849713 0.035111496737074165 0.0024986071441549457 0 0 0
1591 1 0.005 2500 0.0314804243656822 0.032661584630497044 0.002498946157880679 0 0 0
1017 1 0.005 2500 0.038728417854228245 0.032321726226912546 0.002498038373903649 0 0 0
1609 1 0.005 2500 0.04362343165296753 0.03333205802937788 0.0024994444647982025 0 0 0
1834 1 0.005 2500 0.051015627630014375 0.033260548750603594 0.0024997046444739024 0 0 0
1072 1 0.005 2500 0.05788886913616675 0.033072027843092176 0.0024988763732132187 0 0 0
2012 1 0.005 2500 0.06288566573959914 0.033210648311950114 0.0024995109189509175 0 0 0
1737 1 0.005 2500 0.06760996627779577 0.034843450280936814 0.002498888097073837 0 0 0
998 1 0.005 2500 0.07218369856633203 0.03282792011909835 0.0024987404429035816 0 0 0
1818 1 0.005 2500 0.08100888746817862 0.033460566464062494 0.0024990447817309492 0 0 0
921 1 0.005 2500 0.08964348446222045 0.033646632832616756 0.00249902122001059 0 0 0
2001 1 0.005 2500 0.09628093195637097 0.033168466707026285 0.002498663408754445 0 0 0
2022 1 0.005 2500 0.002499471678200162 0.03782507309228889 0.002498955805542482 0 0 0
1660 1 0.005 2500 0.017988134531846358 0.03745283767953461 0.0024981172057330168 0 0 0
1795 1 0.005 2500 0.0263702305560636 0.038172272476053266 0.0024995812674142776 0 0 0
1436 1 0.005 2500 0.03134648406622085 0.03769009566496698 0.0024988818959646173 0 0 0
2109 1 0.005 2500 0.03587440521926772 0.03981051493387971 0.00249952921405513 0 0 0
2186 1 0.005 2500 0.040315624694157226 0.03708021825484975 0.002498968391118554 0 0 0
1729 1 0.005 2500 0.04538370689635362 0.038010760636994406 0.002498333624530839 0 0 0
2176 1 0.005 2500 0.05152284975232459 0.03862609011587448 0.0024986733423630874 0 0 0
1216 1 0.005 2500 0.057988321546439986 0.03806949350652477 0.0024991230568705554 0 0 0
1215 1 0.005 2500 0.06383274834387043 0.03811834341186755 0.0024992801370872352 0 0 0
1484 1 0.005 2500 0.07372562684557442 0.03759133936765652 0.0024992303104047985 0 0 0
1197 1 0.005 2500 0.08088438924234927 0.038457729395448 0.002499092625266578 0 0 0
1000 1 0.005 2500 0.08533371725758226 0.036179061148875244 0.002498961884617723 0 0 0
1415 1 0.005 2500 0.0889210311524705 0.03966148600952388 0.0024988343239734884 0 0 0
1981 1 0.005 2500 0.09323046718968227 0.03712820237709726 0.0024988982083770273 0 0 0
1864 1 0.005 2500 0.09750074065595583 0.03972684949082021 0.002499407402243557 0 0 0
2021 1 0.005 2500 0.0024991603729928396 0.042824594105433406 0.0024990353404108724 0 0 0
2103 1 0.005 2500 0.006829283415261363 0.040325054440071374 0.0024997049730167567 0 0 0
1761 1 0.005 2500 0.011809265001665879 0.04076759918892546 0.002499031579610535 0 0 0
1748 1 0.005 2500 0.028151172849855674 0.04285605562417576 0.0024997046444739024 0 0 0
1782 1 0.005 2500 0.04042225512926173 0.04207847128578549 0.0024990883259213064 0 0 0
1587 1 0.005 2500 0.04681150870895212 0.042800933788938775 0.0024989895298200854 0 0 0
1852 1 0.005 2500 0.05561370810658458 0.04273378883282234 0.0024987182705511484 0 0 0
1108 1 0.005 2500 0.06087633195656738 0.042149158357755324 0.0024985792109983285 0 0 0
1498 1 0.005 2500 0.06584522265905092 0.042694365201107344 0.002499118262277346 0 0 0
1130 1 0.005 2500 0.07385705682152323 0.04303642432459858 0.002499704644473902 0 0 0
1712 1 0.005 2500 0.07997158661129208 0.04337225578941158 0.002498895169890961 0 0 0
1781 1 0.005 2500 0.08451149049100298 0.041673633259609176 0.0037225843131944406 0 0 0
2067 1 0.005 2500 0.09299451891942626 0.042559941709219826 0.002499071442061469 0 0 0
1945 1 0.005 2500 0.0024995928384501124 0.04782403867276172 0.002499330279970889 0 0 0
2114 1 0.005 2500 0.009107072023453492 0.045119064430248434 0.0024988460899775747 0 0 0
1644 1 0.005 2500 0.01410495043806033 0.04520955042147835 0.002498140239661302 0 0 0
2168 1 0.005 2500 0.019129615834284498 0.04511905857878619 0.0024988724970746823 0 0 0
1784 1 0.005 2500 0.02405536857054252 0.04683897448370085 0.002498672916511818 0 0 0
1897 1 0.005 2500 0.03403292232056758 0.04462198331674433 0.002498544481666991 0 0 0
2040 1 0.005 2500 0.04213765536608181 0.0475601491884108 0.0024991284800301617 0 0 0
1776 1 0.005 2500 0.05047159561274554 0.046206444151794895 0.0024990007035045015 0 0 0
1311 1 0.005 2500 0.058789823300750346 0.04669086534585286 0.002497660415369779 0 0 0
2069 1 0.005 2500 0.06970485560759905 0.04587052260433179 0.00249917486670807 0 0 0
794 1 0.005 2500 0.08376330955400639 0.04666931931435468 0.002499704644473902 0 0 0
969 1 0.005 2500 0.08835444204943935 0.044629237442538994 0.0024996767689483734 0 0 0
1375 1 0.005 2500 0.09344226296973744 0.04764617837308056 0.002499695610649383 0 0 0
1692 1 0.005 2500 0.0975005363884004 0.044725872110609736 0.0024993511340606444 0 0 0
2064 1 0.005 2500 0.010374245822464425 0.05152381238819577 0.0024983069094415195 0 0 0
1619 1 0.005 2500 0.024862006908646414 0.051883762627494376 0.0024986659900244207 0 0 0
1835 1 0.005 2500 0.029920689702678173 0.05010378948408944 0.002499436825496475 0 0 0
1889 1 0.005 2500 0.0369329424649784 0.0487183178159336 0.002499704644473902 0 0 0
2057 1 0.005 2500 0.04721706274408948 0.0511204550388753 0.002498454735518208 0 0 0
1419 1 0.005 2500 0.052211634754931145 0.05089285985925339 0.0024992221901789257 0 0 0
2084 1 0.005 2500 0.05718281364675121 0.05142502057591834 0.002499348890469841 0 0 0
1330 1 0.005 2500 0.0642738269827228 0.04811141421238767 0.0024989758214976066 0 0 0
1850 1 0.005 2500 0.0685328676798892 0.050730316241022595 0.002499258880796749 0 0 0
1979 1 0.005 2500 0.07388849939986507 0.048606477468887334 0.0024996134591323536 0 0 0
1641 1 0.005 2500 0.07887433288118173 0.04824910980540204 0.0024982368191831528 0 0 0
2163 1 0.005 2500 0.08263095275801562 0.05154753127110887 0.0024990717395549592 0 0 0
2194 1 0.005 2500 0.08909256815486713 0.0501115272547832 0.0024989368617667445 0 0 0
1697 1 0.005 2500 0.0055676255264791785 0.05337358033574242 0.0024989028136671613 0 0 0
1476 1 0.005 2500 0.014997454319950568 0.05342750662786085 0.002499506340270882 0 0 0
1606 1 0.005 2500 0.0198895848254281 0.05239602767088606 0.0024981399706297046 0 0 0
1871 1 0.005 2500 0.028791871459900954 0.05497423758046151 0.0024993091117868167 0 0 0
1714 1 0.005 2500 0.033604925421800165 0.05362318200978287 0.0024980875783723864 0 0 0
1943 1 0.005 2500 0.04451569434123349 0.05594781814937893 0.0024990312045551745 0 0 0
1878 1 0.005 2500 0.04950124006439761 0.05557268488238653 0.0024997462722764893 0 0 0
2013 1 0.005 2500 0.05449823681805476 0.055735439450211505 0.0024995808807055557 0 0 0
2049 1 0.005 2500 0.06204580657746373 0.05258723495386458 0.0024995217589102825 0 0 0
1665 1 0.005 2500 0.07062277256721274 0.05552613114176102 0.0024987172046785386 0 0 0
1773 1 0.005 2500 0.0758647095394754 0.05395770722642894 0.0024997046444739024 0 0 0
1997 1 0.005 2500 0.0876248314239955 0.05489096856027985 0.0024991974149003227 0 0 0
2014 1 0.005 2500 0.09261801772134605 0.05514670740860665 0.0024986873947576557 0 0 0
1139 1 0.005 2500 0.097500485235912 0.05371374912846283 0.00249911443957357 0 0 0
1849 1 0.005 2500 0.0037792858831329577 0.05814814236819762 0.002498809691321026 0 0 0
2191 1 0.005 2500 0.009034603875439104 0.05697523414726419 0.0024996535593643384 0 0 0
1959 1 0.005 2500 0.013678829428143517 0.0588254778083986 0.002499024607942642 0 0 0
1684 1 0.005 2500 0.018394162214343444 0.05716581387423567 0.002498863090395248 0 0 0
1830 1 0.005 2500 0.02336687679609639 0.05665457983784461 0.002499383798077166 0 0 0
1846 1 0.005 2500 0.03252951953960452 0.05997976045866468 0.002498808414742022 0 0 0
1336 1 0.005 2500 0.03688201696500475 0.05739854618966899 0.002498041133110916 0 0 0
1622 1 0.005 2500 0.059668415456823505 0.0585070865935261 0.0024989424539140774 0 0 0
1963 1 0.005 2500 0.0652333470382189 0.05647332294044056 0.002498984948790666 0 0 0
1847 1 0.005 2500 0.07438785591327446 0.05892405796201828 0.002499704644473902 0 0 0
1636 1 0.005 2500 0.07930248648417183 0.05991170355626895 0.00249759587150996 0 0 0
2059 1 0.005 2500 0.08407014102426501 0.05840671442790961 0.0024995852547853893 0 0 0
2125 1 0.005 2500 0.08920723294540389 0.05963352791842313 0.0024986368884906992 0 0 0
1749 1 0.005 2500 0.09720404689302663 0.05936854871981187 0.0024990300343449966 0 0 0
1865 1 0.005 2500 0.002499491158235998 0.06298125152460038 0.0024984246389610208 0 0 0
1875 1 0.005 2500 0.007324678325673996 0.06167315218730547 0.0024986678323493674 0 0 0
1779 1 0.005 2500 0.01764563805021256 0.06198003640114124 0.003618901074201183 0 0 0
1377 1 0.005 2500 0.022512111727741972 0.06173857306811843 0.0024985199140965075 0 0 0
977 1 0.005 2500 0.028970878986213477 0.06349064090303784 0.0024984074146477556 0 0 0
2028 1 0.005 2500 0.036764583215166874 0.06263564165045911 0.0024983120805690496 0 0 0
2009 1 0.005 2500 0.04210931344323131 0.061119939272798136 0.002499239572855889 0 0 0
1696 1 0.005 2500 0.04708129929552101 0.06059414191299569 0.0024984115493037083 0 0 0
1673 1 0.005 2500 0.054070313562255154 0.061756947452626144 0.0024983858596161345 0 0 0
1923 1 0.005 2500 0.058765559612029485 0.06339854013870402 0.0030030136869288134 0 0 0
1928 1 0.005 2500 0.06399954723535867 0.0628507068203694 0.00249952673290474 0 0 0
1732 1 0.005 2500 0.06873053522406687 0.06015405951823034 0.002499598356750165 0 0 0
2154 1 0.005 2500 0.07277726365844722 0.06367519172525278 0.002498907978636239 0 0 0
1700 1 0.005 2500 0.08441820529598298 0.06345348127585154 0.0024997046444739024 0 0 0
1653 1 0.005 2500 0.09371944218012651 0.06310717321842112 0.002499182731448168 0 0 0
1674 1 0.005 2500 0.010386070870682438 0.0656253998310583 0.0024984700267095586 0 0 0
1626 1 0.005 2500 0.01534349894849617 0.0662733769916293 0.002498148472050791 0 0 0
1676 1 0.005 2500 0.023549348873069195 0.06662879038675106 0.0024977820222142426 0 0 0
1624 1 0.005 2500 0.03348761656780719 0.06715323817823156 0.002498525752120785 0 0 0
1836 1 0.005 2500 0.038833489793837696 0.06728006074006414 0.0024997046444739024 0 0 0
2026 1 0.005 2500 0.04569309081472273 0.06749368716984366 0.0024987937681167486 0 0 0
1701 1 0.005 2500 0.049976563613224854 0.06468220741407893 0.0024997046444739024 0 0 0
2124 1 0.005 2500 0.05456056702762631 0.06692033539128903 0.0024991754870065906 0 0 0
2089 1 0.005 2500 0.0776155084850255 0.06452344093660181 0.003430416043132313 0 0 0
1623 1 0.005 2500 0.08121101927216208 0.06786854674874256 0.002498490697774365 0 0 0
1770 1 0.005 2500 0.09750081013842364 0.06637728540360933 0.002499556163352151 0 0 0
1683 1 0.005 2500 0.0025049219915228653 0.06805509732856752 0.002499514385326054 0 0 0
2132 1 0.005 2500 0.007278527757872143 0.06954230209741019 0.0024996070061411367 0 0 0
2140 1 0.005 2500 0.012230425008324716 0.07027173040898034 0.0024984472496960316 0 0 0
1446 1 0.005 2500 0.020915781042666486 0.07074309834086503 0.0035571550494924733 0 0 0
1903 1 0.005 2500 0.02775379187364446 0.06956230696281807 0.0024991352946257864 0 0 0
2177 1 0.005 2500 0.042359245159292264 0.07127966423976144 0.0024977329694080746 0 0 0
1289 1 0.005 2500 0.05037495035168652 0.06967061817552875 0.002499704644473902 0 0 0
955 1 0.005 2500 0.05557479200930935 0.07181554543172232 0.0024988395557181647 0 0 0
2188 1 0.005 2500 0.06042723678638086 0.06808658993002233 0.0024987968227114664 0 0 0
1368 1 0.005 2500 0.06537208398961591 0.06855881693157127 0.0030600127294637893 0 0 0
1799 1 0.005 2500 0.07031262146503578 0.0680445563831902 0.0024978922531867275 0 0 0
1459 1 0.005 2500 0.07345707375250919 0.07193049389831813 0.0024988065485769687 0 0 0
1964 1 0.005 2500 0.08828936030931803 0.06903189436339918 0.002498678797006527 0 0 0
1507 1 0.005 2500 0.09350945192287818 0.06938751286559329 0.002499399364971862 0 0 0
1815 1 0.005 2500 0.0024995801864987435 0.07514468039876394 0.0024977149172549246 0 0 0
1848 1 0.005 2500 0.009453805568398102 0.07498937190392499 0.0024996088383496128 0 0 0
2156 1 0.005 2500 0.016510421684648238 0.0728553726594902 0.0024990008003389604 0 0 0
1614 1 0.005 2500 0.021884303237731075 0.07588769011841168 0.0024984566587419664 0 0 0
1822 1 0.005 2500 0.03452553463426822 0.07326858242371115 0.0024992451048890182 0 0 0
1832 1 0.005 2500 0.03896425425505887 0.07556948723334854 0.0024993728633431224 0 0 0
1638 1 0.005 2500 0.049202011576346134 0.07499070115067791 0.002498293367648142 0 0 0
1856 1 0.005 2500 0.06461368104659075 0.07459652492597117 0.0024979410115533243 0 0 0
1592 1 0.005 2500 0.07690047466011078 0.07555376158846332 0.0024988058331340763 0 0 0
1720 1 0.005 2500 0.08185915279901784 0.0728252863623876 0.002498333564534039 0 0 0
1433 1 0.005 2500 0.09061036115133375 0.07346008275363347 0.0024983043618786987 0 0 0
2077 1 0.005 2500 0.09708213997215841 0.07332668517234397 0.0024992397190638756 0 0 0
1273 1 0.005 2500 0.004687706905115402 0.07963965139643014 0.0024988600378271454 0 0 0
1841 1 0.005 2500 0.009675622728310192 0.07998438443518388 0.0024985929863505256 0 0 0
2112 1 0.005 2500 0.01396036221098666 0.0771550551753443 0.002498386417387804 0 0 0
2016 1 0.005 2500 0.026580130181960576 0.07761445116813237 0.002499404325688564 0 0 0
1837 1 0.005 2500 0.03372986249920038 0.07892911957046617 0.002497776658862188 0 0 0
1823 1 0.005 2500 0.044501412740168875 0.07669435433787447 0.0024992006175396245 0 0 0
845 1 0.005 2500 0.05309275852121329 0.07857203827390105 0.002498994597063751 0 0 0
1232 1 0.005 2500 0.060540443486191836 0.07854859138522431 0.0024989529209863076 0 0 0
1974 1 0.005 2500 0.06902319048806844 0.07869510375087427 0.0024992812244067422 0 0 0
1810 1 0.005 2500 0.08407744158049309 0.07986480693718873 0.0024985219632504435 0 0 0
1862 1 0.005 2500 0.08849229575920986 0.0778343029163423 0.0036694127736351754 0 0 0
1908 1 0.005 2500 0.09334218192185145 0.07813289997314465 0.00249816159130259 0 0 0
832 1 0.005 2500 0.01514865342484546 0.08251564208358611 0.0024997039344242435 0 0 0
2139 1 0.005 2500 0.020593659051326294 0.08311607617599279 0.0024983175392113 0 0 0
2161 1 0.005 2500 0.025592710855490038 0.08312333021777085 0.002498390978664932 0 0 0
1911 1 0.005 2500 0.03852708984381663 0.08054993672086824 0.002498560330337477 0 0 0
1480 1 0.005 2500 0.047412587177221584 0.08077996302031185 0.0024995889016659377 0 0 0
239 1 0.005 2500 0.05125668736180232 0.08397698799019414 0.002499705010338519 0 0 0
1983 1 0.005 2500 0.05607179796700438 0.08263055663826553 0.002499036346452694 0 0 0
1501 1 0.005 2500 0.0647354707610332 0.08126635564958443 0.002497595241181213 0 0 0
1154 1 0.005 2500 0.07313684728012491 0.0815355213563774 0.0024986559547219584 0 0 0
2078 1 0.005 2500 0.07838351835067757 0.08334014855457089 0.0024989918038858723 0 0 0
2020 1 0.005 2500 0.08846855291268986 0.08297863908635321 0.002499440183194635 0 0 0
1221 1 0.005 2500 0.09749903740036704 0.08173370258750656 0.0024997046444739024 0 0 0
1937 1 0.005 2500 0.0036310859067624833 0.08460634272067477 0.0024988948959615504 0 0 0
1727 1 0.005 2500 0.010734257913301917 0.08487140569489042 0.002498313636894444 0 0 0
1746 1 0.005 2500 0.017413484253645518 0.08697326342570783 0.0024982429582136555 0 0 0
2111 1 0.005 2500 0.022344535780393734 0.08779874084261345 0.002499095135139314 0 0 0
1742 1 0.005 2500 0.028754225393455412 0.0870046008192814 0.002499034163819794 0 0 0
1725 1 0.005 2500 0.03358271592350036 0.08570813410295894 0.0024987559076169743 0 0 0
1011 1 0.005 2500 0.04206413172530317 0.08408263917296502 0.0024985492388529835 0 0 0
2010 1 0.005 2500 0.060764659971592735 0.084376236446843 0.002499704644473902 0 0 0
941 1 0.005 2500 0.06449832868693353 0.08779212148374625 0.0024993771757364077 0 0 0
1353 1 0.005 2500 0.06957183244292205 0.08796887771266515 0.0024984047861612083 0 0 0
1633 1 0.005 2500 0.07431668002898259 0.0863940308160359 0.002498571721064109 0 0 0
1768 1 0.005 2500 0.08607086468199107 0.08736743661797791 0.0024994054623345926 0 0 0
981 1 0.005 2500 0.09559933164430585 0.08637726449107741 0.002498613690562814 0 0 0
2149 1 0.005 2500 0.006953043910531708 0.08837955673027764 0.0024997046444739024 0 0 0
1616 1 0.005 2500 0.014318955539106367 0.09091493945428249 0.002497678191348799 0 0 0
2162 1 0.005 2500 0.01925199043973916 0.09172725046807476 0.002499641630202872 0 0 0
1869 1 0.005 2500 0.03743795422676391 0.0892195389410132 0.0024994483400825815 0 0 0
1948 1 0.005 2500 0.049439999941794904 0.08863509647105268 0.0024974511499095816 0 0 0
2054 1 0.005 2500 0.05684374921470636 0.08921528724290136 0.0024995489494356 0 0 0
892 1 0.005 2500 0.07700783874798033 0.09112254733518584 0.0024995952318181097 0 0 0
1389 1 0.005 2500 0.0811692208785085 0.08835122943577707 0.00249853301172365 0 0 0
2018 1 0.005 2500 0.09096663133361348 0.08837875862738864 0.002498355905002401 0 0 0
1030 1 0.005 2500 0.09750188728922814 0.09099920535785053 0.002498649960189033 0 0 0
1936 1 0.005 2500 0.0025019265220429104 0.09221656625994867 0.0024991023846856228 0 0 0
2115 1 0.005 2500 0.009621657252759592 0.09263566877298363 0.002499704644473902 0 0 0
947 1 0.005 2500 0.029038776809917066 0.09216094180359503 0.002498635688502138 0 0 0
1060 1 0.005 2500 0.03334969194884044 0.0947817563951264 0.0024997046444739024 0 0 0
2024 1 0.005 2500 0.041283814043055755 0.09276947831046947 0.0024980570251202676 0 0 0
1977 1 0.005 2500 0.048445878080367495 0.09457139261850857 0.0024981788772325086 0 0 0
1406 1 0.005 2500 0.05287975373525506 0.09226240336787918 0.0024984572439249986 0 0 0
1067 1 0.005 2500 0.06057462715166022 0.09286893823774735 0.0024984129327964353 0 0 0
1225 1 0.005 2500 0.065573459784389 0.09281943468702258 0.002499648972047654 0 0 0
1716 1 0.005 2500 0.07057055868888469 0.09295961925118226 0.0024987099439445232 0 0 0
855 1 0.005 2500 0.08150422903927766 0.09345447975573136 0.0024988099768473745 0 0 0
1147 1 0.005 2500 0.08824882801306652 0.09257551994434593 0.002499614500861099 0 0 0
1378 1 0.005 2500 0.09316530819565244 0.09348472110708653 0.002498998414406765 0 0 0
1958 1 0.005 2500 0.002499939714324402 0.09735045818481573 0.0024980883496246394 0 0 0
1081 1 0.005 2500 0.00791316108401719 0.09750072891420482 0.002498884160942838 0 0 0
1750 1 0.005 2500 0.013161125441343876 0.09657095978300498 0.0024988127759140288 0 0 0
2002 1 0.005 2500 0.01808916071446254 0.0974076392897718 0.002498982505039395 0 0 0
1713 1 0.005 2500 0.02308692238019187 0.097500718106475 0.0024982342015741547 0 0 0
1791 1 0.005 2500 0.028600325709382663 0.09730501083316012 0.0024985373113209663 0 0 0
1043 1 0.005 2500 0.037657450446313294 0.09750138292891909 0.0024987782304302687 0 0 0
999 1 0.005 2500 0.04439435860509355 0.0975003448334779 0.0024987592347643453 0 0 0
1952 1 0.005 2500 0.05260564420317407 0.09734551747628524 0.0024995439830580793 0 0 0
1652 1 0.005 2500 0.057662874518716066 0.09738615275494891 0.002498554410748996 0 0 0
1309 1 0.005 2500 0.06266125587285369 0.0974995421190216 0.0024996797596502688 0 0 0
1885 1 0.005 2500 0.06766079118131567 0.09746096359283202 0.0024994736533651245 0 0 0
1218 1 0.005 2500 0.07266011688803839 0.09750083027897034 0.002498867104470534 0 0 0
1432 1 0.005 2500 0.07756473890796407 0.09653249343236357 0.0024987412166620894 0 0 0
1787 1 0.005 2500 0.0852439215392504 0.09677220563179206 0.002498968038511878 0 0 0
868 1 0.005 2500 0.09018916634968502 0.09750074858502195 0.0024986756798624013 0 0 0
1975 1 0.005 2500 0.0975009758908523 0.09737235472243842 0.002499321472629163 0 0 0
1157 1 0.005 2500 0.013730619110482822 0.002499455476793896 0.006065140176795843 0 0 0
2129 1 0.005 2500 0.0306665538296444 0.0024985587572144046 0.00722672887237976 0 0 0
1505 1 0.005 2500 0.04134912671880265 0.002499697935284697 0.006829619964534082 0 0 0
2043 1 0.005 2500 0.048046871405711226 0.002498970546228182 0.006763679705091825 0 0 0
2105 1 0.005 2500 0.05690900517612053 0.002498727155697878 0.00692634300334044 0 0 0
1241 1 0.005 2500 0.06373428988056659 0.00249920462240842 0.006827770206575084 0 0 0
1543 1 0.005 2500 0.07476970261779689 0.0025007865333914756 0.006035769952572389 0 0 0
2147 1 0.005 2500 0.09086317967629694 0.0024994555283389328 0.006793588654260459 0 0 0
914 1 0.005 2500 0.09676356324414433 0.0024997316759828923 0.00593618555037991 0 0 0
1448 1 0.005 2500 0.0063612260549611235 0.0044872088387853245 0.004971414015851634 0 0 0
640 1 0.005 2500 0.01243666682302708 0.007171090538758355 0.0072874878389329895 0 0 0
1463 1 0.005 2500 0.018997068284030423 0.005205771552875279 0.006313847083454971 0 0 0
1699 1 0.005 2500 0.023882491146012555 0.007284858369501126 0.007097815547873873 0 0 0
1931 1 0.005 2500 0.028872511954491926 0.0071472149768232835 0.006832778076852281 0 0 0
1271 1 0.005 2500 0.03522536494917178 0.004517220808456131 0.006862309118416372 0 0 0
755 1 0.005 2500 0.039477138657233186 0.007133473261576064 0.007123585972238889 0 0 0
2063 1 0.005 2500 0.044692382558430686 0.00615547998357599 0.006156246157920355 0 0 0
30 1 0.005 2500 0.052476398074050724 0.004810337148500627 0.006931050537705677 0 0 0
1679 1 0.005 2500 0.05988575206570834 0.006466332990550739 0.007546203508945987 0 0 0
1287 1 0.005 2500 0.06470557519701726 0.007397659301223458 0.00660119403670293 0 0 0
2029 1 0.005 2500 0.06873551622117573 0.0044248934526102774 0.006377967203547476 0 0 0
182 1 0.005 2500 0.07297967836188793 0.00743033239340337 0.006952827410984668 0 0 0
1352 1 0.005 2500 0.07845513606900169 0.006183388805763275 0.005875107524980472 0 0 0
573 1 0.005 2500 0.08319090764974346 0.004371254339233731 0.007133671650017187 0 0 0
913 1 0.005 2500 0.0883536719144345 0.006773848550646209 0.007446678932710376 0 0 0
2047 1 0.005 2500 0.0024990961702937168 0.011165690603161253 0.005920333929045496 0 0 0
1584 1 0.005 2500 0.009462567903603359 0.011049602354163303 0.006235674509289795 0 0 0
1752 1 0.005 2500 0.016754577507768716 0.009645700063163603 0.006812383588023254 0 0 0
1151 1 0.005 2500 0.021343296045132253 0.011442416103225703 0.005976448349867898 0 0 0
2200 1 0.005 2500 0.02765088912737261 0.01198911202358922 0.006615447335816341 0 0 0
1160 1 0.005 2500 0.03389999560302349 0.00927773066057634 0.00610316315690891 0 0 0
1604 1 0.005 2500 0.038087048099838094 0.011923937514707501 0.006783131866892014 0 0 0
1532 1 0.005 2500 0.04328603649199983 0.010926004011714925 0.006665224531610506 0 0 0
1340 1 0.005 2500 0.049145945109699635 0.008440240498502439 0.006078146862732815 0 0 0
937 1 0.005 2500 0.05430144111033816 0.00946007213675095 0.006732899284372783 0 0 0
247 1 0.005 2500 0.05955053451674802 0.011435099996912433 0.00711239998467463 0 0 0
1514 1 0.005 2500 0.06884506532320872 0.010196047985817667 0.00645275185075764 0 0 0
1802 1 0.005 2500 0.07552977815583765 0.011713532263784607 0.007339753168931269 0 0 0
1760 1 0.005 2500 0.08331355303659148 0.00936934782037389 0.00713529087442427 0 0 0
807 1 0.005 2500 0.09195433094907855 0.0106193789379305 0.006907599504811372 0 0 0
660 1 0.005 2500 0.09750023629120404 0.00861953723129745 0.00679080794743411 0 0 0
1681 1 0.005 2500 0.006049585362805407 0.014705659110126506 0.00621150705487339 0 0 0
1777 1 0.005 2500 0.013711925318218469 0.013611400350810739 0.006847570284173596 0 0 0
1946 1 0.005 2500 0.018295179376493137 0.015476107348904216 0.00613397994139147 0 0 0
806 1 0.005 2500 0.02411136989413138 0.015512337985544812 0.006847920685207532 0 0 0
1646 1 0.005 2500 0.033182141896603366 0.014203333527676429 0.006564031999877721 0 0 0
1148 1 0.005 2500 0.047708620443798276 0.0132577030027634 0.0066987853513850665 0 0 0
1944 1 0.005 2500 0.052725331445200384 0.014181519893950993 0.007194138719037356 0 0 0
965 1 0.005 2500 0.057402150392810374 0.015946822165966303 0.007251246389522171 0 0 0
283 1 0.005 2500 0.06435492541686985 0.012709204381312362 0.006571127751071989 0 0 0
184 1 0.005 2500 0.07050980485729626 0.014864268693312753 0.0071063550805700836 0 0 0
1170 1 0.005 2500 0.08025307895849049 0.013321126071620948 0.00702033770149509 0 0 0
693 1 0.005 2500 0.08729941634315216 0.012375354549638872 0.007402951348943008 0 0 0
792 1 0.005 2500 0.09288663630637242 0.015526976338246772 0.0071153788110509975 0 0 0
1568 1 0.005 2500 0.09750063520545652 0.01361851345329777 0.006868671956160864 0 0 0
2181 1 0.005 2500 0.0024997753163637938 0.018283945504218146 0.0060807855493103585 0 0 0
1062 1 0.005 2500 0.010300504042870166 0.017264573068916537 0.0068244529813627575 0 0 0
1950 1 0.005 2500 0.014913588265501408 0.01920121488847004 0.006271123179380242 0 0 0
1308 1 0.005 2500 0.028937651539570602 0.016799530625658053 0.007046506461093597 0 0 0
1008 1 0.005 2500 0.03330438051717625 0.019207774928022274 0.00669825388636893 0 0 0
28 1 0.005 2500 0.04322330877092231 0.016771450509376538 0.006553286110316495 0 0 0
2146 1 0.005 2500 0.049404423573186806 0.017913704492794294 0.007364986676513976 0 0 0
1577 1 0.005 2500 0.0621204307999257 0.017301831112314127 0.006038128086735286 0 0 0
1703 1 0.005 2500 0.07514702699020101 0.01670198587044675 0.00743802760535911 0 0 0
1422 1 0.005 2500 0.07922034254685378 0.01882944041444077 0.005470063140428534 0 0 0
1294 1 0.005 2500 0.084254406292014 0.01631829820137535 0.0069786562132458365 0 0 0
629 1 0.005 2500 0.09749838535362768 0.01868868051771812 0.006828709352068322 0 0 0
880 1 0.005 2500 0.0024990488799310462 0.023015137924778262 0.007695373441403124 0 0 0
1915 1 0.005 2500 0.007007082643448353 0.021025827605465106 0.006849959383208374 0 0 0
2120 1 0.005 2500 0.011368525573493191 0.023476189015102657 0.005735384919776253 0 0 0
1405 1 0.005 2500 0.01613960253106019 0.023968537712061692 0.007144149481676835 0 0 0
1766 1 0.005 2500 0.020471846782055717 0.0208979052535754 0.006653317270967561 0 0 0
2052 1 0.005 2500 0.028006081094096538 0.021675384775795416 0.006462412431266052 0 0 0
1881 1 0.005 2500 0.03932830190743236 0.02085439594988194 0.007016403672521478 0 0 0
1895 1 0.005 2500 0.046876485592179745 0.022211959709579454 0.007020488351744815 0 0 0
1394 1 0.005 2500 0.05227686408237042 0.022098264758242125 0.006220605398499506 0 0 0
1223 1 0.005 2500 0.05746398513738086 0.020699307360936055 0.005568417957491527 0 0 0
595 1 0.005 2500 0.06632675874987876 0.021974531200674295 0.006565267320813067 0 0 0
1296 1 0.005 2500 0.0755980391394538 0.02168135024227755 0.00740242007400845 0 0 0
520 1 0.005 2500 0.08247602784766325 0.02234331765096662 0.006902183891493911 0 0 0
1022 1 0.005 2500 0.08707761852662114 0.020459448811678854 0.00637903607334029 0 0 0
1551 1 0.005 2500 0.09274884596308326 0.02052432912717657 0.007106817106663832 0 0 0
2127 1 0.005 2500 0.005895109659116728 0.026358685729548463 0.006187085488897384 0 0 0
1940 1 0.005 2500 0.023797957264797477 0.02757186890626163 0.005186362363437773 0 0 0
1109 1 0.005 2500 0.028609864636811397 0.02662782016384708 0.006156624428556441 0 0 0
1986 1 0.005 2500 0.032925434519631855 0.024191060681041668 0.006813002185378985 0 0 0
2046 1 0.005 2500 0.037681924891838706 0.025730360141393016 0.006823209902148666 0 0 0
1126 1 0.005 2500 0.042568706602956134 0.024708161262470753 0.0065762745511980985 0 0 0
2189 1 0.005 2500 0.05314586346496115 0.02697680606697285 0.006884986344895571 0 0 0
1804 1 0.005 2500 0.058044735191172245 0.02629046459448024 0.006160064619326414 0 0 0
1009 1 0.005 2500 0.06339355153287181 0.02608899995935192 0.006604488125647796 0 0 0
1672 1 0.005 2500 0.06837261246280019 0.026536566653694096 0.006570662252695591 0 0 0
2185 1 0.005 2500 0.07865270380421294 0.025544758021794744 0.006542039662594665 0 0 0
1555 1 0.005 2500 0.08438208780812982 0.027058357685155594 0.005434298191535199 0 0 0
1627 1 0.005 2500 0.08993012612133473 0.02464654746620701 0.006872769236264481 0 0 0
14 1 0.005 2500 0.09750028153173224 0.024817201888861273 0.006066529401458563 0 0 0
1675 1 0.005 2500 0.002498823032249277 0.030001077549116517 0.006621018540750953 0 0 0
989 1 0.005 2500 0.01192751615091562 0.028111364100619457 0.007522404141282319 0 0 0
1868 1 0.005 2500 0.016864945362454285 0.028899695498596056 0.007528385774509923 0 0 0
932 1 0.005 2500 0.021457653563398803 0.0312618408083794 0.007614145462047146 0 0 0
1598 1 0.005 2500 0.03083626913132342 0.030988215628894217 0.007165259016672913 0 0 0
1269 1 0.005 2500 0.035350164473282805 0.029903125934836836 0.0052776750067764526 0 0 0
1927 1 0.005 2500 0.04250933367008546 0.02965307764836501 0.005841915149971572 0 0 0
1677 1 0.005 2500 0.04721515549582999 0.029984498754225493 0.007496849244896862 0 0 0
2141 1 0.005 2500 0.055890944157924116 0.031155196937967006 0.006896028893519587 0 0 0
1814 1 0.005 2500 0.06082427225982579 0.030358031541912384 0.007010777826407967 0 0 0
1079 1 0.005 2500 0.06579629578363289 0.03074969506384114 0.007352046632050414 0 0 0
899 1 0.005 2500 0.07116944367462522 0.030667820570822752 0.006891433798640399 0 0 0
1099 1 0.005 2500 0.07621058225698228 0.029838553789686507 0.007314077164735896 0 0 0
970 1 0.005 2500 0.08113452766165472 0.0306550635804644 0.006664651973089645 0 0 0
212 1 0.005 2500 0.08871542276570418 0.03042159380251132 0.006204758598011673 0 0 0
2007 1 0.005 2500 0.09321934664234975 0.02838708320885286 0.007297488675267251 0 0 0
1333 1 0.005 2500 0.09750090689924013 0.030917592950331564 0.0067921578708248645 0 0 0
1628 1 0.005 2500 0.0024994221911801623 0.03499185177059048 0.007003077612475174 0 0 0
1629 1 0.005 2500 0.009998706831185937 0.03222398299819458 0.005435909960799942 0 0 0
1208 1 0.005 2500 0.01757169108696314 0.033257477250651264 0.0051831785781832045 0 0 0
1472 1 0.005 2500 0.0256936409855824 0.03322723360318597 0.005756332077685975 0 0 0
1960 1 0.005 2500 0.03523563493851773 0.03527781566119629 0.004510400009639424 0 0 0
1373 1 0.005 2500 0.03958955628460695 0.03344327378937222 0.0072919926616471726 0 0 0
1914 1 0.005 2500 0.04732719346068294 0.0346102544919197 0.005604372684435925 0 0 0
1013 1 0.005 2500 0.05452134294087282 0.035637594573421826 0.005157062755632133 0 0 0
1362 1 0.005 2500 0.06223247094874361 0.03515402114030328 0.007059337724544527 0 0 0
1179 1 0.005 2500 0.07163165027678378 0.03563758431344092 0.00659706815786755 0 0 0
2104 1 0.005 2500 0.07653136461973825 0.03405022823014974 0.004640387235373574 0 0 0
1655 1 0.005 2500 0.08283432110787237 0.035356172809132946 0.006749376405774496 0 0 0
590 1 0.005 2500 0.08788210833613815 0.03558293377874477 0.00675862218736608 0 0 0
1222 1 0.005 2500 0.09298782412459683 0.033783975400169114 0.006212461293453497 0 0 0
1427 1 0.005 2500 0.09750060882406293 0.03591732808406962 0.006491782231111851 0 0 0
194 1 0.005 2500 0.0032349785848642437 0.03993841640195428 0.006968804124815616 0 0 0
950 1 0.005 2500 0.0074690333402215835 0.03607835109543333 0.0073673458097270345 0 0 0
1544 1 0.005 2500 0.013551925938916864 0.037516574496296626 0.006897548248491484 0 0 0
1588 1 0.005 2500 0.01851806528594794 0.03760293274091879 0.007466411846816634 0 0 0
2164 1 0.005 2500 0.02201153425036753 0.03976251289195528 0.004361701593693514 0 0 0
1999 1 0.005 2500 0.02893114744615793 0.036889316472303466 0.006801715016674028 0 0 0
948 1 0.005 2500 0.03839437866007941 0.0382852397358809 0.006953781488570626 0 0 0
1685 1 0.005 2500 0.04328348002844818 0.03724071851147609 0.0069685574584499275 0 0 0
2090 1 0.005 2500 0.04832062070046403 0.03964544238908184 0.006198999590220918 0 0 0
1140 1 0.005 2500 0.05820342588285959 0.03808223673859831 0.007493240962529225 0 0 0
622 1 0.005 2500 0.06684134413429875 0.03708454190591417 0.0069006284899631705 0 0 0
1980 1 0.005 2500 0.07707597347156397 0.039920095194639224 0.005388454584233103 0 0 0
1132 1 0.005 2500 0.09278034664524756 0.039206734797746695 0.007022354722332969 0 0 0
91 1 0.005 2500 0.011164100956109549 0.04336143695000837 0.0067231382052059035 0 0 0
961 1 0.005 2500 0.01610802988325957 0.04136196134043943 0.00498140550453471 0 0 0
1585 1 0.005 2500 0.020104535822038153 0.04347301399418039 0.007116975637477462 0 0 0
1156 1 0.005 2500 0.03197927869801473 0.04143140319591412 0.005753934593202458 0 0 0
2048 1 0.005 2500 0.037103752081287134 0.04304066948893234 0.006112086161371855 0 0 0
903 1 0.005 2500 0.04364561457014334 0.04218441250630505 0.006318712746578558 0 0 0
1617 1 0.005 2500 0.05385759152778879 0.04039255589513128 0.006551698940003368 0 0 0
1488 1 0.005 2500 0.05833007359504733 0.04320372538332784 0.006668793254985762 0 0 0
1708 1 0.005 2500 0.06273199154420252 0.04012664702995084 0.006942691624795993 0 0 0
366 1 0.005 2500 0.06830346786693121 0.041863603970038694 0.006772026696462611 0 0 0
1705 1 0.005 2500 0.08160580338105052 0.040144510299880594 0.007492719738554081 0 0 0
1976 1 0.005 2500 0.08794298915786786 0.04074966831855481 0.007278796750654448 0 0 0
1506 1 0.005 2500 0.09750068141265945 0.040809942448230295 0.0075185219545597605 0 0 0
1719 1 0.005 2500 0.0057332228801284515 0.044173752567686644 0.006063795338653264 0 0 0
585 1 0.005 2500 0.024813553682557807 0.04515214006392754 0.00714268513810032 0 0 0
2153 1 0.005 2500 0.0303796657456602 0.04616343365682264 0.005542081122644278 0 0 0
2152 1 0.005 2500 0.04160867993225347 0.04753848355909049 0.007470292213834997 0 0 0
1693 1 0.005 2500 0.0463227041502923 0.04699401549474867 0.005175148999274013 0 0 0
935 1 0.005 2500 0.05042927998987241 0.044100667780376746 0.007032735911456738 0 0 0
856 1 0.005 2500 0.05461261339163724 0.04679173307220341 0.005242046159555709 0 0 0
2050 1 0.005 2500 0.06367330321931226 0.04500152819168575 0.006366240066704416 0 0 0
2042 1 0.005 2500 0.06769975841624924 0.047958197782637546 0.006575818933851979 0 0 0
2199 1 0.005 2500 0.07216156350484838 0.04504319225256635 0.0067738436792362244 0 0 0
1637 1 0.005 2500 0.07713811472200063 0.04482541266953025 0.006351917379071077 0 0 0
1297 1 0.005 2500 0.08110924555248064 0.047803866879180416 0.006946665138630137 0 0 0
673 1 0.005 2500 0.08525269942706586 0.04496190393109535 0.0074148633630013875 0 0 0
1322 1 0.005 2500 0.08990333393201567 0.047212645583122145 0.006490389976403715 0 0 0
2074 1 0.005 2500 0.09375701181855749 0.044106524710061074 0.007191205712260759 0 0 0
1839 1 0.005 2500 0.09750120197483832 0.04786215956776193 0.006391980371846726 0 0 0
1947 1 0.005 2500 0.002499216398941373 0.05144768002728608 0.005943464627570955 0 0 0
308 1 0.005 2500 0.006799013868846073 0.04890386569836014 0.004811051169166034 0 0 0
1662 1 0.005 2500 0.011991306386650072 0.048219637536121275 0.005882839932771575 0 0 0
2091 1 0.005 2500 0.01668623807077018 0.04905330700212119 0.0043814873502337915 0 0 0
1726 1 0.005 2500 0.021405643225711375 0.04919255831033139 0.006024448618513672 0 0 0
1020 1 0.005 2500 0.02691489907985167 0.049645363670540725 0.006468454863639305 0 0 0
1813 1 0.005 2500 0.03338842116236202 0.050165867520173206 0.00610082635016391 0 0 0
1168 1 0.005 2500 0.04290176815135866 0.05187435352656034 0.004907207244363225 0 0 0
1970 1 0.005 2500 0.05050781879254053 0.049098255931676174 0.006921623260360929 0 0 0
1816 1 0.005 2500 0.05884640267697751 0.048769099858548604 0.007041451836250159 0 0 0
1489 1 0.005 2500 0.07651826937308062 0.04977780437135835 0.006633685658237779 0 0 0
973 1 0.005 2500 0.08562505838713282 0.0497667847709118 0.006084511020309945 0 0 0
1402 1 0.005 2500 0.09420614779252426 0.05152702290231661 0.005558290650047325 0 0 0
1056 1 0.005 2500 0.008539818080909818 0.05392374738231484 0.00648080039984281 0 0 0
46 1 0.005 2500 0.013321744166009905 0.05534845145961934 0.006800386873715973 0 0 0
1797 1 0.005 2500 0.020800100049209354 0.05500667795937647 0.006662722291095312 0 0 0
1645 1 0.005 2500 0.025789879774466857 0.05473896504641887 0.006495744009181195 0 0 0
1892 1 0.005 2500 0.03805195760909335 0.053072300599037156 0.004714514850685202 0 0 0
1661 1 0.005 2500 0.04784206705286139 0.05332692672063109 0.006939709365403558 0 0 0
1625 1 0.005 2500 0.05373296640254646 0.05301278371454629 0.006763098145230719 0 0 0
1248 1 0.005 2500 0.05819626948219147 0.055046656117062116 0.005792993508466643 0 0 0
2183 1 0.005 2500 0.0627338676167022 0.0536317488040106 0.007340170577916521 0 0 0
1618 1 0.005 2500 0.06757672937512665 0.054000230743659505 0.006157558901176464 0 0 0
983 1 0.005 2500 0.07214215247483788 0.052012989901728555 0.005714662544521059 0 0 0
671 1 0.005 2500 0.0804659580283254 0.05553099543914935 0.004604648526318183 0 0 0
33 1 0.005 2500 0.08494914196991275 0.054891475082286596 0.006721968565887952 0 0 0
1694 1 0.005 2500 0.08951415092504098 0.0528546785218151 0.006656864433156384 0 0 0
2004 1 0.005 2500 0.002931749892763661 0.05630021935253925 0.007065267058727289 0 0 0
1907 1 0.005 2500 0.017209892107972732 0.05848980476050556 0.007171327204476404 0 0 0
1809 1 0.005 2500 0.022799213078739607 0.05957665104308226 0.006995934642729094 0 0 0
2107 1 0.005 2500 0.02714872535375353 0.05926647153633737 0.004465232554302445 0 0 0
2160 1 0.005 2500 0.03198655626776134 0.05661874955864705 0.0061586672094175385 0 0 0
1264 1 0.005 2500 0.03583842225011586 0.05978615741468115 0.00676275789820814 0 0 0
1966 1 0.005 2500 0.04083279143279511 0.0573800457484459 0.0055613381649892435 0 0 0
1037 1 0.005 2500 0.04620850740209919 0.058045510474673344 0.006709323834016304 0 0 0
1924 1 0.005 2500 0.05088262459743161 0.05933437847543283 0.005490453303869588 0 0 0
2197 1 0.005 2500 0.06299442207035556 0.05897690523304696 0.006201465305342193 0 0 0
1998 1 0.005 2500 0.07103476183075519 0.05749155636212921 0.007076348388549303 0 0 0
1518 1 0.005 2500 0.07763786394517116 0.05882700714942617 0.0070838162097962756 0 0 0
1921 1 0.005 2500 0.0931928599545072 0.059123352817185865 0.005473019504341677 0 0 0
1335 1 0.005 2500 0.09750052811361647 0.05654892244731196 0.006616644239168151 0 0 0
349 1 0.005 2500 0.007294429363441769 0.0613009279898637 0.007483160626467995 0 0 0
1891 1 0.005 2500 0.012703770846312476 0.06255054534614997 0.005686530018318277 0 0 0
1478 1 0.005 2500 0.025472051309190946 0.06369689320019391 0.006062508486765258 0 0 0
1651 1 0.005 2500 0.03077739331883722 0.06176374851136668 0.006828704169437673 0 0 0
2080 1 0.005 2500 0.039922751174810235 0.06386703012089498 0.006171217665616325 0 0 0
1649 1 0.005 2500 0.04490001900939473 0.06372846542250431 0.005724500040804526 0 0 0
897 1 0.005 2500 0.05848559075907548 0.06084186494871015 0.007290575356939488 0 0 0
804 1 0.005 2500 0.06677558493898014 0.062222648363349106 0.0066101069292937055 0 0 0
1982 1 0.005 2500 0.07176837268328862 0.062434041792482825 0.007234842761421604 0 0 0
1762 1 0.005 2500 0.08145931307276079 0.06218031327182735 0.006394429225886431 0 0 0
2118 1 0.005 2500 0.086236946049689 0.06070968229004623 0.006372405494734668 0 0 0
2085 1 0.005 2500 0.0975002046057782 0.06264946393214982 0.006259580848749934 0 0 0
1733 1 0.005 2500 0.0024996088138165137 0.06551566362105753 0.006806226984581704 0 0 0
1894 1 0.005 2500 0.007693297909099507 0.0662170803667606 0.006667932153039793 0 0 0
2123 1 0.005 2500 0.01275086883994 0.0674646208203891 0.006601693813584051 0 0 0
1972 1 0.005 2500 0.019452645903346076 0.0663098419439606 0.005345646239802311 0 0 0
2126 1 0.005 2500 0.029896238197218893 0.06683269759083295 0.00609841092081757 0 0 0
1621 1 0.005 2500 0.03483218687074636 0.06468092453611299 0.006629779119826668 0 0 0
2073 1 0.005 2500 0.04848921814480687 0.06709103522459738 0.006622824603516336 0 0 0
1018 1 0.005 2500 0.05490136941309488 0.06428220778536194 0.006731732553426165 0 0 0
1718 1 0.005 2500 0.062083119631503286 0.06538027297736759 0.006362919075767424 0 0 0
1207 1 0.005 2500 0.0690647368865608 0.06663732233689294 0.00712852572084354 0 0 0
1851 1 0.005 2500 0.07423894695710968 0.06753933335405171 0.005549474530037425 0 0 0
2053 1 0.005 2500 0.0801299159839669 0.06691608772430381 0.0072853040990403855 0 0 0
942 1 0.005 2500 0.08491929361030805 0.06741924186197623 0.00582033863639183 0 0 0
1874 1 0.005 2500 0.08915201124976463 0.06437219566283041 0.004090823653900424 0 0 0
1044 1 0.005 2500 0.0936989461333993 0.06625025181107073 0.006387260130549402 0 0 0
1315 1 0.005 2500 0.0024988457575655662 0.07160204389352068 0.006023279904922368 0 0 0
1298 1 0.005 2500 0.01684655416385125 0.07032494955741912 0.00679759809660276 0 0 0
1491 1 0.005 2500 0.025263909097934713 0.06864572703329656 0.006736482427444454 0 0 0
1788 1 0.005 2500 0.033496280175289425 0.07028865607141527 0.006391808710883617 0 0 0
1904 1 0.005 2500 0.0382360948631796 0.07145621567965675 0.005317022785989733 0 0 0
1900 1 0.005 2500 0.04256751879471472 0.0681048998236069 0.0063527565661136275 0 0 0
1759 1 0.005 2500 0.04658826644130946 0.07164476122351301 0.005137621349633009 0 0 0
2072 1 0.005 2500 0.05279727223593598 0.06925271291194958 0.007949699257435211 0 0 0
2145 1 0.005 2500 0.057547635391684594 0.06855504611884598 0.006557966234427065 0 0 0
1984 1 0.005 2500 0.06449088391424276 0.07188000330482856 0.006691878555187519 0 0 0
1910 1 0.005 2500 0.07287683625881247 0.07195250583191275 0.00746387295485892 0 0 0
1499 1 0.005 2500 0.07784031751574327 0.0709198899121852 0.004780351547439983 0 0 0
1704 1 0.005 2500 0.08229838066564762 0.07142038993491033 0.007275536293077671 0 0 0
1631 1 0.005 2500 0.09063544773305592 0.07062476258128672 0.00661535135362403 0 0 0
863 1 0.005 2500 0.09716134580847534 0.06984459485545372 0.00608569009100594 0 0 0
974 1 0.005 2500 0.007991080341055678 0.0724156198356321 0.0065287076588948795 0 0 0
352 1 0.005 2500 0.01285015437183686 0.07377479156779704 0.0060095128850681115 0 0 0
1089 1 0.005 2500 0.020546484600906006 0.07430301122244949 0.007046701779908875 0 0 0
1101 1 0.005 2500 0.025423270641891926 0.0732864041018571 0.004885131588319232 0 0 0
2071 1 0.005 2500 0.030181920618707492 0.07476306346037015 0.004472433299259916 0 0 0
1243 1 0.005 2500 0.04205857739555801 0.07452934595601339 0.0062857145235869485 0 0 0
927 1 0.005 2500 0.05260677461527781 0.0738410668591112 0.005973301389737547 0 0 0
1807 1 0.005 2500 0.06021096212339095 0.07282721447480289 0.004071528833506583 0 0 0
1785 1 0.005 2500 0.06880148236337681 0.07248300879412557 0.004233493598496964 0 0 0
870 1 0.005 2500 0.0768411310785517 0.0750153381183622 0.007468596813989147 0 0 0
1991 1 0.005 2500 0.0862139865583332 0.07342704701020297 0.004877342865772481 0 0 0
823 1 0.005 2500 0.09335246550131529 0.07499097553249885 0.006386829110979109 0 0 0
1939 1 0.005 2500 0.0024990520459019327 0.07680940741699632 0.007210350919162281 0 0 0
968 1 0.005 2500 0.007331728563115296 0.07765184353691544 0.0062477143228266 0 0 0
1920 1 0.005 2500 0.018315338634148602 0.07898001117898543 0.004138832770806613 0 0 0
1371 1 0.005 2500 0.023098054151131222 0.07983388996946779 0.005317914011344022 0 0 0
1801 1 0.005 2500 0.026655737749377528 0.07723961865519623 0.007685646490897951 0 0 0
2030 1 0.005 2500 0.035425674431461204 0.07628370144674504 0.006384728684385258 0 0 0
1820 1 0.005 2500 0.03918986914833572 0.07943605677427971 0.007325800498095771 0 0 0
2087 1 0.005 2500 0.04972747691147107 0.07832229747674943 0.006187324657142511 0 0 0
1074 1 0.005 2500 0.05681048500223545 0.07636937234626809 0.005013290943539084 0 0 0
1184 1 0.005 2500 0.061383431878694425 0.07666542927541059 0.007052987438963727 0 0 0
1573 1 0.005 2500 0.06631567688991846 0.07718439068243256 0.00642056641572406 0 0 0
1090 1 0.005 2500 0.07034024055048708 0.079897453384401 0.007619638794007904 0 0 0
2175 1 0.005 2500 0.07262966512182341 0.0762911659474271 0.004991413160757239 0 0 0
2142 1 0.005 2500 0.07671337636304436 0.07966641283469335 0.005449431420802081 0 0 0
1877 1 0.005 2500 0.08092089833822302 0.07698991669194495 0.005098680545848152 0 0 0
1690 1 0.005 2500 0.08523480184660884 0.07788624874333105 0.0074605065574896556 0 0 0
1386 1 0.005 2500 0.09107844422764019 0.07925082309671524 0.0077066783070423705 0 0 0
2138 1 0.005 2500 0.09750170887066281 0.07751344377299971 0.005198953574915032 0 0 0
1589 1 0.005 2500 0.00249838478264902 0.08176841381899022 0.00645643075563306 0 0 0
1833 1 0.005 2500 0.007245953650513458 0.0830698869117006 0.005591560420726856 0 0 0
2171 1 0.005 2500 0.012829669681682117 0.08010020866390333 0.006375413062955688 0 0 0
1015 1 0.005 2500 0.018968773898401625 0.08362953819300363 0.007196892955544892 0 0 0
1312 1 0.005 2500 0.026623181902436593 0.08380009739374278 0.007342389940523145 0 0 0
388 1 0.005 2500 0.02965251204943213 0.0810093899591476 0.004507598647102262 0 0 0
1954 1 0.005 2500 0.03414063258459672 0.08181777991101621 0.006555896801647292 0 0 0
1912 1 0.005 2500 0.04403778177682318 0.08010417882658928 0.006126047456061159 0 0 0
1319 1 0.005 2500 0.0540861083713214 0.0809652838729824 0.006774675963722584 0 0 0
1006 1 0.005 2500 0.05904664998458094 0.08140039661390482 0.006323848692038747 0 0 0
2055 1 0.005 2500 0.06376978665519976 0.08281640324489317 0.007149343361374504 0 0 0
1953 1 0.005 2500 0.0688721509079512 0.08337760755400082 0.004346015128157662 0 0 0
858 1 0.005 2500 0.07332904419631753 0.0838453131701432 0.006927742211640071 0 0 0
1926 1 0.005 2500 0.08428787376322172 0.08382427611370236 0.005542278063755292 0 0 0
1702 1 0.005 2500 0.09299914817037286 0.08265825421952779 0.00459402687633913 0 0 0
1088 1 0.005 2500 0.002499725251729275 0.08687631997790046 0.00680675788331853 0 0 0
934 1 0.005 2500 0.031089554985530593 0.08598511636249993 0.00682252535001197 0 0 0
1769 1 0.005 2500 0.0378129845387457 0.0848398387607885 0.005016698538608873 0 0 0
2039 1 0.005 2500 0.04643412257887955 0.08525374399707125 0.004623030376675689 0 0 0
1753 1 0.005 2500 0.05103849139761111 0.0874636461165788 0.007085382021930551 0 0 0
1492 1 0.005 2500 0.05573287465958531 0.08600730726733245 0.006169991991607943 0 0 0
1395 1 0.005 2500 0.06656946919552821 0.08695445475871603 0.006971954577664364 0 0 0
1929 1 0.005 2500 0.07960735002367175 0.08594004691688686 0.006589661757653863 0 0 0
1529 1 0.005 2500 0.08905810437121296 0.08401293453896908 0.007355112296029119 0 0 0
1288 1 0.005 2500 0.09750047035201283 0.0845740301176861 0.006756016229108192 0 0 0
1367 1 0.005 2500 0.0024986247455603184 0.0918297667126211 0.0074831307786213655 0 0 0
1233 1 0.005 2500 0.01177584864003583 0.08833918340957382 0.005944647765160187 0 0 0
954 1 0.005 2500 0.017242389679349292 0.08839328951789602 0.007287168154840616 0 0 0
2102 1 0.005 2500 0.0257279526739845 0.08884283823981123 0.006027686880316937 0 0 0
953 1 0.005 2500 0.03305299830670344 0.0901616027976021 0.004708818090045256 0 0 0
1572 1 0.005 2500 0.037145156199124646 0.08901550833605862 0.007713163264931911 0 0 0
1503 1 0.005 2500 0.041459198555929354 0.08824735441642591 0.005306498074080481 0 0 0
2051 1 0.005 2500 0.04552880529584835 0.09103077879824331 0.004483457206387684 0 0 0
1808 1 0.005 2500 0.06075501581371222 0.08895435313170154 0.005602980049568585 0 0 0
1535 1 0.005 2500 0.0701388573348253 0.09045034690671748 0.006800090756308405 0 0 0
1603 1 0.005 2500 0.07533890125188092 0.08852375909545498 0.0069033091934541675 0 0 0
1183 1 0.005 2500 0.08010467004276896 0.09098341359169816 0.0066123802908071285 0 0 0
2068 1 0.005 2500 0.08409201117828739 0.08824378837122579 0.00786966931970097 0 0 0
1199 1 0.005 2500 0.0889620770806212 0.08900121937133326 0.007034800603993678 0 0 0
1163 1 0.005 2500 0.09412881619477573 0.08995080086491185 0.006036110601803691 0 0 0
1123 1 0.005 2500 0.0066173077320040505 0.09431636055149407 0.006127332162537024 0 0 0
1091 1 0.005 2500 0.01481408318643582 0.09276035162238008 0.007115626789063234 0 0 0
1209 1 0.005 2500 0.023411147599237972 0.09312579525798599 0.004895574603689417 0 0 0
1357 1 0.005 2500 0.028580542024598355 0.0926954923730429 0.007447247152741118 0 0 0
1023 1 0.005 2500 0.037233286525572076 0.09342044270919538 0.005352929424990281 0 0 0
631 1 0.005 2500 0.04189378953799813 0.09274241477289265 0.007459665496192332 0 0 0
1590 1 0.005 2500 0.0521800347735303 0.092400711173095 0.007445890160015868 0 0 0
2135 1 0.005 2500 0.05665145254960044 0.09353575605849947 0.0055224649787931485 0 0 0
1734 1 0.005 2500 0.06308544914639411 0.0941286793845042 0.006633998000758317 0 0 0
1516 1 0.005 2500 0.07417936489094319 0.09341044464434939 0.005929119528215894 0 0 0
1024 1 0.005 2500 0.08485850083623445 0.09288001608826915 0.00616160918497868 0 0 0
861 1 0.005 2500 0.09085943411898507 0.09362524724871907 0.006931903441358716 0 0 0
1671 1 0.005 2500 0.09736254399744682 0.0939965358971964 0.006495907777731745 0 0 0
1460 1 0.005 2500 0.00249895029997527 0.09743180018992348 0.0074951161231748996 0 0 0
1180 1 0.005 2500 0.01062498076887877 0.09723860809315749 0.0067538291987292685 0 0 0
904 1 0.005 2500 0.020007895535257 0.09750029033720545 0.007114207178707291 0 0 0
1350 1 0.005 2500 0.025846029212729247 0.09750061898812869 0.00666526793198553 0 0 0
1933 1 0.005 2500 0.0317376291267381 0.09750063821420293 0.00638521799938713 0 0 0
1411 1 0.005 2500 0.04102636256973818 0.09750036171012118 0.006192167832226632 0 0 0
1610 1 0.005 2500 0.049204467831085494 0.09750093678027201 0.006475842353782689 0 0 0
958 1 0.005 2500 0.05414335446695581 0.09750004162804538 0.007254333584061041 0 0 0
1016 1 0.005 2500 0.05914312456993538 0.09750083200526279 0.007271511712866106 0 0 0
1758 1 0.005 2500 0.06669519752515038 0.0975005488760795 0.0074046419567556305 0 0 0
1282 1 0.005 2500 0.0716948489699629 0.09749250831720063 0.00740357884274189 0 0 0
1537 1 0.005 2500 0.07669341172032904 0.09750054942724097 0.007324587730121497 0 0 0
1561 1 0.005 2500 0.08137894524162957 0.09750029304103622 0.0055837552135227925 0 0 0
1092 1 0.005 2500 0.08770394977038533 0.09750100606915797 0.0068356810281141 0 0 0
1599 1 0.005 2500 0.09384603449696688 0.09750089787763876 0.005906992713399369 0 0 0
2184 1 0.005 2500 0.002499609109426322 0.002498717375980111 0.010264016014836128 0 0 0
1783 1 0.005 2500 0.00909817405563823 0.0024990667020147596 0.008651438484282575 0 0 0
738 1 0.005 2500 0.013479198382535083 0.0024989035204234264 0.011058556948187285 0 0 0
277 1 0.005 2500 0.01844607381189242 0.0024996916207591243 0.01049392258707024 0 0 0
2179 1 0.005 2500 0.02281655892416622 0.002498608040682667 0.008067096036383784 0 0 0
144 1 0.005 2500 0.027064943663748894 0.0029349666174374126 0.010666408341688896 0 0 0
1158 1 0.005 2500 0.03797444100543978 0.0024996200367560107 0.010518525834580218 0 0 0
1451 1 0.005 2500 0.04475322142677345 0.0024988727443764677 0.010525007651373016 0 0 0
869 1 0.005 2500 0.05066798562298462 0.002499897308523096 0.011020949429151656 0 0 0
1527 1 0.005 2500 0.05561329710296339 0.0024994989303871737 0.011755376588189898 0 0 0
605 1 0.005 2500 0.060483562479096295 0.002499630773329223 0.010626128293497836 0 0 0
1095 1 0.005 2500 0.06681798238561111 0.0024997299306552417 0.010763045470497185 0 0 0
719 1 0.005 2500 0.07352260471045709 0.0024998648362517485 0.010877356497832688 0 0 0
664 1 0.005 2500 0.07904226482338732 0.0024994952294558706 0.00920342452345105 0 0 0
251 1 0.005 2500 0.08692797180815866 0.002499862433265116 0.00987764068594107 0 0 0
2158 1 0.005 2500 0.0029016064308444787 0.007348596211639439 0.009122377846705216 0 0 0
698 1 0.005 2500 0.007894554323967509 0.007297022652127121 0.009372721064243729 0 0 0
911 1 0.005 2500 0.01595441053778576 0.006838365386448197 0.010870812122667824 0 0 0
1345 1 0.005 2500 0.020947946425573225 0.006783526020102942 0.011113979493040231 0 0 0
489 1 0.005 2500 0.027562948392330065 0.007823872892704285 0.011609737676805343 0 0 0
674 1 0.005 2500 0.03240295996066712 0.007150415496440875 0.010372573966385626 0 0 0
107 1 0.005 2500 0.037260089962403674 0.007328197855311238 0.011600399789691233 0 0 0
1778 1 0.005 2500 0.04241866686371145 0.006873729973892705 0.01115739942926744 0 0 0
603 1 0.005 2500 0.04748470950165424 0.006685250059412724 0.010454540928934199 0 0 0
699 1 0.005 2500 0.05424716215930563 0.007279934083839233 0.011231673761806626 0 0 0
61 1 0.005 2500 0.06346957281434963 0.006443583277681522 0.011350598756039734 0 0 0
2121 1 0.005 2500 0.07016865339806279 0.0062077482865240795 0.010902283533393703 0 0 0
440 1 0.005 2500 0.09385864536526642 0.005910830778929625 0.008887892986698238 0 0 0
1161 1 0.005 2500 0.011875339491754334 0.01088081675773051 0.010610797103209403 0 0 0
1513 1 0.005 2500 0.024166127380548824 0.011253528568359763 0.010123961861168396 0 0 0
1355 1 0.005 2500 0.03479103471568345 0.01153984795025155 0.010521956475466438 0 0 0
1754 1 0.005 2500 0.04169123569550401 0.01181683740106549 0.01131890761013955 0 0 0
1596 1 0.005 2500 0.050763561134736325 0.010720852309118373 0.010222234598376082 0 0 0
1127 1 0.005 2500 0.05900820759522311 0.008612250799792628 0.011975741837711214 0 0 0
218 1 0.005 2500 0.06910697135630889 0.011071204901811986 0.011367984110999534 0 0 0
1242 1 0.005 2500 0.07440654767322755 0.009055179789660564 0.011460495841025313 0 0 0
500 1 0.005 2500 0.079154259575182 0.009074383128443211 0.009893576478951628 0 0 0
532 1 0.005 2500 0.08566245173093526 0.00819348759653001 0.01141357134379403 0 0 0
1113 1 0.005 2500 0.09065168368508952 0.00882072963117966 0.01138705846239327 0 0 0
316 1 0.005 2500 0.09532544604281061 0.011060916233838331 0.010573406526516152 0 0 0
1133 1 0.005 2500 0.002499465092956484 0.014415488569006273 0.00971921298255962 0 0 0
966 1 0.005 2500 0.006875927066404198 0.01208461345335577 0.010387739327986862 0 0 0
1440 1 0.005 2500 0.01194104873150854 0.015828974582822637 0.011323636011921023 0 0 0
1552 1 0.005 2500 0.016656319784857838 0.01227044936994302 0.011065527268383085 0 0 0
883 1 0.005 2500 0.0212244119808219 0.015216869258601192 0.010918816911719252 0 0 0
1097 1 0.005 2500 0.02620085594590728 0.015589399294390889 0.011556374815800722 0 0 0
668 1 0.005 2500 0.02987184329661252 0.012228015635899812 0.011088008109212722 0 0 0
694 1 0.005 2500 0.0461292830696489 0.01595945228765038 0.01059764674208451 0 0 0
902 1 0.005 2500 0.055530506962649655 0.012119851358208917 0.010783675995716521 0 0 0
124 1 0.005 2500 0.06027775163819881 0.01343597918512474 0.011635796106925373 0 0 0
798 1 0.005 2500 0.07322191727987072 0.013905377675021924 0.011195376063953613 0 0 0
1173 1 0.005 2500 0.08299944312874859 0.012413060439989881 0.011098085734855092 0 0 0
1581 1 0.005 2500 0.002498837254325611 0.019251436459609562 0.010985880340515569 0 0 0
638 1 0.005 2500 0.006981049143386657 0.017079774951648974 0.010557291364731596 0 0 0
432 1 0.005 2500 0.016669819927809148 0.017239805260499848 0.010520553715512734 0 0 0
658 1 0.005 2500 0.024467808186785376 0.01977275484885525 0.009438215152986503 0 0 0
877 1 0.005 2500 0.029185461365402333 0.019726342996482356 0.011091389444748991 0 0 0
1105 1 0.005 2500 0.03292971809118386 0.016413808335898707 0.011041130158968147 0 0 0
1194 1 0.005 2500 0.03718242089815815 0.01656157213337002 0.008416409999863518 0 0 0
682 1 0.005 2500 0.041252251517970746 0.01679644393663405 0.011310202096663944 0 0 0
1613 1 0.005 2500 0.05307044411371094 0.017673462435944965 0.01075582175473888 0 0 0
1717 1 0.005 2500 0.05761277717218136 0.019745921773736557 0.010493444831483147 0 0 0
728 1 0.005 2500 0.06279230410659029 0.017706360235702153 0.010975916330500556 0 0 0
770 1 0.005 2500 0.06757201693386528 0.01624184554568587 0.010909411181443448 0 0 0
1165 1 0.005 2500 0.07119983641672223 0.019600302541204727 0.008549912341532457 0 0 0
281 1 0.005 2500 0.0807007405556259 0.01785114661022099 0.01014403544250292 0 0 0
1520 1 0.005 2500 0.08861141913623302 0.016772603553005586 0.009387733753939366 0 0 0
1580 1 0.005 2500 0.09607022228114366 0.01618504380235567 0.010914032472029682 0 0 0
1526 1 0.005 2500 0.011930210100082201 0.020815246655209882 0.009943256024512813 0 0 0
1458 1 0.005 2500 0.01839939892946017 0.021895467888446193 0.011092222252827338 0 0 0
9 1 0.005 2500 0.036464448350215645 0.022751433547955707 0.010648693146126332 0 0 0
1219 1 0.005 2500 0.043566239306934304 0.02117348769164165 0.01061931227593609 0 0 0
1347 1 0.005 2500 0.04858035568742442 0.020663469108161196 0.011458555479303871 0 0 0
596 1 0.005 2500 0.06175231257537204 0.0223745294091024 0.009519727877442569 0 0 0
1217 1 0.005 2500 0.06836957717040029 0.02288660803281487 0.011036107314497251 0 0 0
780 1 0.005 2500 0.07342812234624965 0.02268444579704643 0.011793217641454298 0 0 0
90 1 0.005 2500 0.07846360509838674 0.022200695079937605 0.011466057046372052 0 0 0
35 1 0.005 2500 0.08624321846131303 0.023683129462502273 0.010108406335049164 0 0 0
1 1 0.005 2500 0.09021463368015085 0.020997352351981562 0.011526990416437372 0 0 0
874 1 0.005 2500 0.09750023638154418 0.02124555444984753 0.011125077931008127 0 0 0
2027 1 0.005 2500 0.0024998080959289415 0.027045753184585304 0.010652879601374461 0 0 0
1267 1 0.005 2500 0.008880014221128002 0.024775803698655858 0.00987171509069299 0 0 0
889 1 0.005 2500 0.013667752820493971 0.025308833028206038 0.011278365272153455 0 0 0
2025 1 0.005 2500 0.02068442491496001 0.025529812535489006 0.008522412934662072 0 0 0
1085 1 0.005 2500 0.025492350385758197 0.024663255409156527 0.009585297059159248 0 0 0
1620 1 0.005 2500 0.03432363557276982 0.02797025329120575 0.009772142927287144 0 0 0
1735 1 0.005 2500 0.047586750623950444 0.025886106503171896 0.010334541039480146 0 0 0
875 1 0.005 2500 0.05220850775218046 0.02404484670508201 0.010824745883943908 0 0 0
1166 1 0.005 2500 0.05716282138875349 0.024714140455579653 0.010821898415362078 0 0 0
1938 1 0.005 2500 0.06138761885192384 0.027381238566702097 0.01099717653589546 0 0 0
1409 1 0.005 2500 0.0665044539920814 0.02752443003349749 0.011105262069611536 0 0 0
2070 1 0.005 2500 0.07311938090724551 0.025976201595398096 0.008035194109007084 0 0 0
838 1 0.005 2500 0.07677106128627914 0.026902776640918943 0.011321805608773022 0 0 0
1447 1 0.005 2500 0.08174485077246144 0.0258356071603875 0.010459087954914209 0 0 0
710 1 0.005 2500 0.08958950585881416 0.027853546820882875 0.010693485863097886 0 0 0
851 1 0.005 2500 0.09368536709072198 0.02434106026266449 0.010196983816071741 0 0 0
1080 1 0.005 2500 0.09750038347398707 0.02755848285931841 0.010495071590654555 0 0 0
2130 1 0.005 2500 0.006914192084389848 0.030412859992312913 0.008928168422085025 0 0 0
50 1 0.005 2500 0.02600905438433848 0.029620552410393797 0.009202085278118896 0 0 0
815 1 0.005 2500 0.03964222037120468 0.029142831103555467 0.009905995545785482 0 0 0
886 1 0.005 2500 0.05166786144527439 0.030932904150291783 0.009561295322382393 0 0 0
2045 1 0.005 2500 0.055799142178764465 0.029396900287263498 0.01192139315064559 0 0 0
1070 1 0.005 2500 0.07350586776710309 0.031423420825029406 0.011246126425266022 0 0 0
302 1 0.005 2500 0.09257461192204082 0.03187943022795606 0.010816590957966749 0 0 0
997 1 0.005 2500 0.0024999318150114055 0.03209328015882214 0.011161551226555723 0 0 0
849 1 0.005 2500 0.013884127552752708 0.03280177433238486 0.008527355004111614 0 0 0
2182 1 0.005 2500 0.018307716727732164 0.033592626889842055 0.010718141032205829 0 0 0
1845 1 0.005 2500 0.022931327431889907 0.03583103334636603 0.009009521373042926 0 0 0
885 1 0.005 2500 0.030519602222178862 0.034324437065887 0.010874245522096065 0 0 0
1793 1 0.005 2500 0.0350390882478418 0.032894181778481225 0.00928680274392678 0 0 0
894 1 0.005 2500 0.04396788725523224 0.03309622491772176 0.009678934837789085 0 0 0
1283 1 0.005 2500 0.05103266665870932 0.03582233616916635 0.008732885606178669 0 0 0
2094 1 0.005 2500 0.05874355460111218 0.033200734205419205 0.01055805387165017 0 0 0
853 1 0.005 2500 0.06368044889534673 0.032953863330674765 0.011309193321953714 0 0 0
764 1 0.005 2500 0.06878737290905977 0.0335988501027372 0.01016738481980979 0 0 0
1381 1 0.005 2500 0.08012314954504171 0.03360933275093039 0.010569003220136859 0 0 0
275 1 0.005 2500 0.08760993831217867 0.03244455923742012 0.010641001452290673 0 0 0
256 1 0.005 2500 0.09750016218077531 0.03248102035839255 0.01154084580167814 0 0 0
834 1 0.005 2500 0.004427752669054506 0.03670485909620921 0.011284812636792851 0 0 0
2131 1 0.005 2500 0.010982998434526148 0.03761283073891913 0.011184883175061553 0 0 0
1076 1 0.005 2500 0.015572702711818789 0.03958608585351668 0.010985536794256706 0 0 0
1214 1 0.005 2500 0.028641902915247246 0.03888409447299171 0.011694064121237437 0 0 0
1916 1 0.005 2500 0.03354173832876679 0.03762094783494935 0.008588830283647892 0 0 0
1775 1 0.005 2500 0.04140912817943477 0.03792037972910399 0.011552829451071011 0 0 0
260 1 0.005 2500 0.04616511670714194 0.03919417221293993 0.01068640818438519 0 0 0
1266 1 0.005 2500 0.055245146604901915 0.036698945565698374 0.011278026865240863 0 0 0
2033 1 0.005 2500 0.06180746303891709 0.03758847445092637 0.011405138108667844 0 0 0
1838 1 0.005 2500 0.06647380322987573 0.0395053054092828 0.01125915521106453 0 0 0
1465 1 0.005 2500 0.07190297011078357 0.03713381422953401 0.011838674131733935 0 0 0
1252 1 0.005 2500 0.07600266617285599 0.036077180529510755 0.009179363028333113 0 0 0
1274 1 0.005 2500 0.08491639820941507 0.03708028214539277 0.01095500023937178 0 0 0
1798 1 0.005 2500 0.08987105432415884 0.037732243374722044 0.010810854818901719 0 0 0
1247 1 0.005 2500 0.09750039136422613 0.03747188639815165 0.011243283441795256 0 0 0
1989 1 0.005 2500 0.002499779179190644 0.042815886343905284 0.010989966707220675 0 0 0
984 1 0.005 2500 0.007661326254942996 0.0407452384868407 0.00914829482912962 0 0 0
734 1 0.005 2500 0.01160198892124948 0.04255289717551999 0.01163744686788761 0 0 0
157 1 0.005 2500 0.021257768444198157 0.040216575801540096 0.010729811899108405 0 0 0
896 1 0.005 2500 0.02548807836053339 0.040285565325686105 0.008066710931768126 0 0 0
2137 1 0.005 2500 0.02930383549495466 0.04333750295634825 0.009522766051018547 0 0 0
1575 1 0.005 2500 0.03689495768796408 0.04006149744829171 0.011379167902820914 0 0 0
2098 1 0.005 2500 0.040354764315522915 0.043351272210958025 0.009897138370049914 0 0 0
922 1 0.005 2500 0.05163452484945489 0.040223596243336296 0.011026460122446147 0 0 0
207 1 0.005 2500 0.05811656747864783 0.041013086010432624 0.011541996924684626 0 0 0
562 1 0.005 2500 0.07101522623801265 0.04313408561767862 0.011705275886620126 0 0 0
177 1 0.005 2500 0.07286112282211632 0.04025900753198102 0.008055387158343537 0 0 0
1710 1 0.005 2500 0.07731007491580798 0.04071990742689016 0.010493829029756185 0 0 0
76 1 0.005 2500 0.08550370530881772 0.04202350011901326 0.011452368154251349 0 0 0
104 1 0.005 2500 0.09421614848992588 0.04123972309627926 0.011357959321464668 0 0 0
1913 1 0.005 2500 0.0024991092612339136 0.04713213437615882 0.008466898036937634 0 0 0
1882 1 0.005 2500 0.008432083443819186 0.0463243817638376 0.009681069104698355 0 0 0
1893 1 0.005 2500 0.0155238725917241 0.04430226941183638 0.008981982684883065 0 0 0
951 1 0.005 2500 0.02155043368185898 0.04676708777000663 0.010588150698691002 0 0 0
654 1 0.005 2500 0.026892197309443516 0.04754809489812829 0.011006371425470321 0 0 0
912 1 0.005 2500 0.031808562883304886 0.04762459790431499 0.010104722796137946 0 0 0
2172 1 0.005 2500 0.03673246749943488 0.04738213276660846 0.00856173994118219 0 0 0
919 1 0.005 2500 0.04634700792019439 0.044382782437808424 0.009904832917730371 0 0 0
1745 1 0.005 2500 0.05054980244688749 0.04669836029454717 0.01130753814302077 0 0 0
879 1 0.005 2500 0.054567476905302836 0.04409395407607291 0.009837231908077228 0 0 0
1050 1 0.005 2500 0.05995087408648009 0.045599059103546453 0.01074575774245686 0 0 0
705 1 0.005 2500 0.06633061866900047 0.044454789156264725 0.010565041480785353 0 0 0
1029 1 0.005 2500 0.0754551471179012 0.04533096438886037 0.011031773873369137 0 0 0
2144 1 0.005 2500 0.08092555910198006 0.04417122528125229 0.010375866303358948 0 0 0
142 1 0.005 2500 0.08992914306046527 0.04410576412996346 0.010407359695623855 0 0 0
1103 1 0.005 2500 0.09750059813847205 0.04488818211472234 0.010410973078599495 0 0 0
1124 1 0.005 2500 0.0055904272073819105 0.051532484466079574 0.009871703151094759 0 0 0
1262 1 0.005 2500 0.010543451448953902 0.050851615065883086 0.009877424346754373 0 0 0
454 1 0.005 2500 0.01593222690277228 0.04927384241448051 0.009317703071399439 0 0 0
312 1 0.005 2500 0.023554008021259433 0.05131078850442003 0.010010379534835648 0 0 0
2108 1 0.005 2500 0.03884273354994602 0.05181864698591833 0.009489417591787465 0 0 0
1528 1 0.005 2500 0.04574607223649359 0.049538801092909965 0.009438616729871986 0 0 0
1805 1 0.005 2500 0.049906787295983246 0.05168867106214686 0.011187881630616507 0 0 0
2167 1 0.005 2500 0.05464453808687749 0.04909291361649438 0.009729613752283943 0 0 0
1634 1 0.005 2500 0.06331319818703071 0.04905574655335564 0.009267434313823897 0 0 0
1654 1 0.005 2500 0.06766548328057752 0.051267316731610106 0.010343185164797306 0 0 0
1106 1 0.005 2500 0.0723847347077591 0.04906035813576891 0.009742052129401471 0 0 0
259 1 0.005 2500 0.07912907222765281 0.0486736410417591 0.011599396074269826 0 0 0
1647 1 0.005 2500 0.08412415675258722 0.04839298180017272 0.010890115978095883 0 0 0
1512 1 0.005 2500 0.08894871026806275 0.04969253052425065 0.010725355599909009 0 0 0
1502 1 0.005 2500 0.09365893813705149 0.04852855962106598 0.009520509759261456 0 0 0
1967 1 0.005 2500 0.012491035121704044 0.055057230868253884 0.011749555000438127 0 0 0
1477 1 0.005 2500 0.01800750185263245 0.05364366746172997 0.010578517966487073 0 0 0
1363 1 0.005 2500 0.02838078910289105 0.05259343366672088 0.010230478458503691 0 0 0
1858 1 0.005 2500 0.03328324938562445 0.053488888279039616 0.009834154389148475 0 0 0
1796 1 0.005 2500 0.04298752811630236 0.05458807042511705 0.009105251520193976 0 0 0
703 1 0.005 2500 0.054219590766522274 0.05415720861907628 0.011738145026402079 0 0 0
844 1 0.005 2500 0.058730537737690276 0.05259021148030663 0.010260017221382391 0 0 0
1178 1 0.005 2500 0.07184951095282938 0.053753518898540506 0.011484970126543839 0 0 0
865 1 0.005 2500 0.07567082812397892 0.05440354148169092 0.008328603125056242 0 0 0
1206 1 0.005 2500 0.08027423572759161 0.052465237723366906 0.008548622296418576 0 0 0
504 1 0.005 2500 0.08422839317126816 0.053436666920341894 0.011449871477176778 0 0 0
1973 1 0.005 2500 0.09334606185093101 0.055076007583346374 0.008975453156616596 0 0 0
1562 1 0.005 2500 0.09750043393049752 0.05229267181118395 0.009239938918589817 0 0 0
2116 1 0.005 2500 0.007096431853242757 0.057049047279273665 0.010104911530627281 0 0 0
1278 1 0.005 2500 0.01150406635655605 0.05929059108859048 0.009280941333949817 0 0 0
2174 1 0.005 2500 0.023506669706441694 0.05626568068563919 0.010673270175989732 0 0 0
1890 1 0.005 2500 0.02830479167318375 0.05811553132936521 0.009191277487531516 0 0 0
1772 1 0.005 2500 0.033088860057318405 0.05840867504431493 0.010703603613158866 0 0 0
1883 1 0.005 2500 0.03878061996174337 0.05753230555120066 0.010117102510058299 0 0 0
1971 1 0.005 2500 0.04560424511480734 0.05787420422234639 0.011816225276300187 0 0 0
2081 1 0.005 2500 0.05003222942134883 0.05684125730766221 0.009738782011866357 0 0 0
1600 1 0.005 2500 0.05472351399988568 0.057686881734689534 0.0082332266757964 0 0 0
1169 1 0.005 2500 0.0606543945287523 0.05720350360271872 0.010248363509475647 0 0 0
1902 1 0.005 2500 0.06567874547628846 0.05681811754527071 0.00982445674895928 0 0 0
1780 1 0.005 2500 0.07406970053345753 0.05945813474890598 0.010527417210038033 0 0 0
661 1 0.005 2500 0.0820900008156049 0.05812321176958824 0.009247331809260103 0 0 0
847 1 0.005 2500 0.08595287567546338 0.05991487208399863 0.011988054697543184 0 0 0
1306 1 0.005 2500 0.0888582149606755 0.05727809012422752 0.00889049545241829 0 0 0
2082 1 0.005 2500 0.0975008328222062 0.05928240778153995 0.010802368215667279 0 0 0
1942 1 0.005 2500 0.002499614385938721 0.06094890262123359 0.008854547995926474 0 0 0
1290 1 0.005 2500 0.01678397794945536 0.0634281941212912 0.008439360588656653 0 0 0
1962 1 0.005 2500 0.020325506886924045 0.0610783590732651 0.011072527199650458 0 0 0
1083 1 0.005 2500 0.02530485290261095 0.06182177365326566 0.010694267369004376 0 0 0
1932 1 0.005 2500 0.037836390224438264 0.062452990684152054 0.01048887673010211 0 0 0
2170 1 0.005 2500 0.04256933334328012 0.06065072162994058 0.008935094266732897 0 0 0
1400 1 0.005 2500 0.04840950871851472 0.062063808440229476 0.00887089603020132 0 0 0
1922 1 0.005 2500 0.05598048788228466 0.061155079075846684 0.011606301977096844 0 0 0
1978 1 0.005 2500 0.06246270588467166 0.061863341072051825 0.010248123788098239 0 0 0
1860 1 0.005 2500 0.0688927533536105 0.0605096000208501 0.010843153580437576 0 0 0
1196 1 0.005 2500 0.07653612146091358 0.06356916858194948 0.008220794056968872 0 0 0
1648 1 0.005 2500 0.08045014057949541 0.06284235646291095 0.01124559779836218 0 0 0
2117 1 0.005 2500 0.09262082504215469 0.060248064174627074 0.010309888818206643 0 0 0
2032 1 0.005 2500 0.002498974796013119 0.0650687630444379 0.011784596876838208 0 0 0
491 1 0.005 2500 0.010823229491660305 0.06421219576742652 0.010010986819280206 0 0 0
1027 1 0.005 2500 0.014504459078027348 0.06771159207684366 0.01127570757686059 0 0 0
925 1 0.005 2500 0.022274003637633585 0.06558446830185762 0.009408801359464798 0 0 0
956 1 0.005 2500 0.029372738632463802 0.06472734155326365 0.010602024777965595 0 0 0
1326 1 0.005 2500 0.03353007917327704 0.06750335829609595 0.010543887935034345 0 0 0
2011 1 0.005 2500 0.038176837674968836 0.06779706235766801 0.008723390622948517 0 0 0
1955 1 0.005 2500 0.04283310585810466 0.06537978260140023 0.010535980358668245 0 0 0
1844 1 0.005 2500 0.04754288819666741 0.06678930319176388 0.011522195092965546 0 0 0
1709 1 0.005 2500 0.052207918075847126 0.06511963425711863 0.010859083925277757 0 0 0
1497 1 0.005 2500 0.05863187154466913 0.06506260679754258 0.009966672691263577 0 0 0
2060 1 0.005 2500 0.0652708196052058 0.06599753559108025 0.010318671918254967 0 0 0
2148 1 0.005 2500 0.07295427326458669 0.06649648328641061 0.010266181657195568 0 0 0
1153 1 0.005 2500 0.08498687786647138 0.06424320906082628 0.009680317939059267 0 0 0
1949 1 0.005 2500 0.08994296256063852 0.064269411129767 0.009026112457691549 0 0 0
1941 1 0.005 2500 0.09750014236053375 0.06633863549721435 0.00963380619461757 0 0 0
407 1 0.005 2500 0.004754329523897785 0.06897336536521256 0.009626158610521272 0 0 0
976 1 0.005 2500 0.00971673108552252 0.0693260347561551 0.010110372349290242 0 0 0
1887 1 0.005 2500 0.02061532936707031 0.07025252541957555 0.010081617260584286 0 0 0
1077 1 0.005 2500 0.025945115231628714 0.06832134530151748 0.01167673273584242 0 0 0
1439 1 0.005 2500 0.029173747889552754 0.07097151128483196 0.008807867027925803 0 0 0
1457 1 0.005 2500 0.04428195482331639 0.07150635441182526 0.009589168163733749 0 0 0
2134 1 0.005 2500 0.06146817751291021 0.06916216962065408 0.009600654979776765 0 0 0
1707 1 0.005 2500 0.0684615937279205 0.07095040391564574 0.009583851640204408 0 0 0
1162 1 0.005 2500 0.07692811214439169 0.06996659658516247 0.009616125587839206 0 0 0
1880 1 0.005 2500 0.08270772563892372 0.06838319305669821 0.011309691515652762 0 0 0
1866 1 0.005 2500 0.08752507719459851 0.06855031170206732 0.009934118395054536 0 0 0
1828 1 0.005 2500 0.09381867107688448 0.07128164920613896 0.010413032244650358 0 0 0
1722 1 0.005 2500 0.005111858646967799 0.07390969459134944 0.010333558308693503 0 0 0
295 1 0.005 2500 0.014168430114182048 0.07266723113678422 0.010702881079776265 0 0 0
1826 1 0.005 2500 0.02419267538143656 0.07372855001151915 0.01041829778824367 0 0 0
289 1 0.005 2500 0.028849135914359655 0.07508197191115544 0.01163308078512279 0 0 0
1792 1 0.005 2500 0.03340497502535903 0.07363092542248055 0.010108688498594082 0 0 0
895 1 0.005 2500 0.03840493389269835 0.07394621112647572 0.009647979978967353 0 0 0
1128 1 0.005 2500 0.049189389011920485 0.07242446167882198 0.009334436402604075 0 0 0
1111 1 0.005 2500 0.05691550763438365 0.07301771949488298 0.008721385627652045 0 0 0
1382 1 0.005 2500 0.06275938438854221 0.07379263402975642 0.010973711647121964 0 0 0
1642 1 0.005 2500 0.07073860312313707 0.07559663591860014 0.010135727835231187 0 0 0
964 1 0.005 2500 0.08030912845573401 0.07414614246439641 0.010963746291537192 0 0 0
1328 1 0.005 2500 0.08510934344020864 0.07276572281364072 0.011184509167104745 0 0 0
175 1 0.005 2500 0.0889746364085358 0.0748485841811437 0.008795311057689603 0 0 0
827 1 0.005 2500 0.09750155849514215 0.07440077619934211 0.009110877162696937 0 0 0
848 1 0.005 2500 0.002878870756661541 0.07993562645683651 0.011091912645253851 0 0 0
354 1 0.005 2500 0.010495227522384678 0.07606371488605994 0.00977765794326185 0 0 0
1819 1 0.005 2500 0.01630049399985164 0.07671679517279266 0.008115587426598032 0 0 0
1129 1 0.005 2500 0.020520344863348517 0.07750503738582121 0.01088495532582338 0 0 0
237 1 0.005 2500 0.027226274489899987 0.07989826764980437 0.0118806285096129 0 0 0
1688 1 0.005 2500 0.0314487494633831 0.07820812273301993 0.00872554737348991 0 0 0
1595 1 0.005 2500 0.03569044590908575 0.07974061574053885 0.010882340862981442 0 0 0
1995 1 0.005 2500 0.0423585918857177 0.07875235207275476 0.01113091901200862 0 0 0
2044 1 0.005 2500 0.046013349974745835 0.07624961684763769 0.008814002194270941 0 0 0
993 1 0.005 2500 0.0520767470586173 0.0764698020975269 0.010191970486379572 0 0 0
2157 1 0.005 2500 0.05737136530049954 0.07808959752797098 0.009674239021803907 0 0 0
1961 1 0.005 2500 0.06595743832527991 0.0784298696758939 0.011247798108123628 0 0 0
1276 1 0.005 2500 0.0746403321408359 0.07878162158201009 0.00991158272341259 0 0 0
1078 1 0.005 2500 0.09345259277420813 0.07651021912610768 0.011149066051738038 0 0 0
2035 1 0.005 2500 0.009145806111022232 0.0808799003624785 0.00966279182421024 0 0 0
441 1 0.005 2500 0.014683053516409125 0.08046291623598119 0.011004837920908983 0 0 0
1253 1 0.005 2500 0.02278837188624343 0.08184571819338099 0.0098839811214238 0 0 0
994 1 0.005 2500 0.031115763870361433 0.08279972964057239 0.010675865147947163 0 0 0
574 1 0.005 2500 0.049159171453771744 0.08290754452534739 0.008094906132197363 0 0 0
1304 1 0.005 2500 0.061657218242405686 0.08097866562447369 0.011289804702014303 0 0 0
1579 1 0.005 2500 0.06697073562644107 0.08331584761446173 0.010955452709325677 0 0 0
1414 1 0.005 2500 0.0771834006268404 0.08309370722286932 0.01002139059448298 0 0 0
825 1 0.005 2500 0.08128633464757261 0.08086714267029535 0.008232333879536069 0 0 0
909 1 0.005 2500 0.08554334097380897 0.082263680282621 0.010449687349157301 0 0 0
1212 1 0.005 2500 0.09321402647758974 0.08169481717032959 0.011509545166008831 0 0 0
1566 1 0.005 2500 0.09750069803951904 0.08029954328448313 0.009348960676729648 0 0 0
1686 1 0.005 2500 0.0024995461154446157 0.08537304317011976 0.011574643791058343 0 0 0
2092 1 0.005 2500 0.007376530112796962 0.08738191804957578 0.008116710346340646 0 0 0
971 1 0.005 2500 0.014159608693213773 0.08456328833518333 0.008192307768926587 0 0 0
451 1 0.005 2500 0.021877111072976425 0.08734785525917875 0.008844167447575787 0 0 0
1383 1 0.005 2500 0.027918002265456553 0.08758383259457467 0.010341074458324186 0 0 0
535 1 0.005 2500 0.03670018653872248 0.08453365906908028 0.009880918122419043 0 0 0
1469 1 0.005 2500 0.041706500126498805 0.0840816801044801 0.008060252840015396 0 0 0
1763 1 0.005 2500 0.04656747296699639 0.08705379728654236 0.00928492475915948 0 0 0
1608 1 0.005 2500 0.053375373639714736 0.08443548928647135 0.010303099361615595 0 0 0
1410 1 0.005 2500 0.05999365737768765 0.08545489219497046 0.009091392170333534 0 0 0
568 1 0.005 2500 0.07057622037962372 0.08664971486397746 0.01001780391393469 0 0 0
410 1 0.005 2500 0.07525037169102139 0.08736316002860098 0.011764529402987285 0 0 0
2096 1 0.005 2500 0.08156962781744564 0.08522000098740477 0.011130572303468226 0 0 0
840 1 0.005 2500 0.09330399668617195 0.08604273070595424 0.009042978969783224 0 0 0
1412 1 0.005 2500 0.09750084389641697 0.08468166978739206 0.011754553649544745 0 0 0
1658 1 0.005 2500 0.005889548552537047 0.09111763579079496 0.011086427525199454 0 0 0
1361 1 0.005 2500 0.013533820233898985 0.08913764416190906 0.010555618180634064 0 0 0
1728 1 0.005 2500 0.024319862793504204 0.09171553876731116 0.009869439287697002 0 0 0
60 1 0.005 2500 0.03301949885028093 0.08873673048432143 0.010523508197673323 0 0 0
1213 1 0.005 2500 0.04347067608956474 0.09031161142829171 0.01153356114281169 0 0 0
1318 1 0.005 2500 0.04745029390216381 0.09196602181537021 0.009001505716464311 0 0 0
72 1 0.005 2500 0.050911071541178125 0.08849535407271707 0.011974814976344597 0 0 0
1951 1 0.005 2500 0.05627792660540166 0.08850289621812009 0.010467662719913368 0 0 0
1003 1 0.005 2500 0.06340094613653711 0.08928563299608636 0.010056736813825164 0 0 0
1824 1 0.005 2500 0.08967829313827298 0.08800187811061431 0.01188019041049243 0 0 0
859 1 0.005 2500 0.09315823886570959 0.09142112814910973 0.010785930192474962 0 0 0
2 1 0.005 2500 0.09750080515591139 0.08921772184323246 0.009652701420168431 0 0 0
1131 1 0.005 2500 0.010237880829948247 0.09261244469616706 0.009123266346817111 0 0 0
1258 1 0.005 2500 0.019676365334014297 0.09264776003894591 0.008270886262716411 0 0 0
1490 1 0.005 2500 0.03340973873333345 0.09332684463621176 0.008570411651707927 0 0 0
1586 1 0.005 2500 0.03799363891665624 0.09316107798232852 0.010559656970820303 0 0 0
1821 1 0.005 2500 0.05942483460854779 0.09226044812275812 0.009480695234619111 0 0 0
1041 1 0.005 2500 0.0669309406028121 0.09303227782128241 0.009635103284156257 0 0 0
1039 1 0.005 2500 0.07185899629764127 0.09338091175684075 0.010465309971277923 0 0 0
1567 1 0.005 2500 0.07668719801551004 0.09215166011103093 0.01006711371893853 0 0 0
1073 1 0.005 2500 0.0825847666558321 0.09264040757115768 0.010624557789616467 0 0 0
553 1 0.005 2500 0.0875734629585515 0.09235060484731185 0.010477026721924191 0 0 0
1481 1 0.005 2500 0.006827681314114029 0.09750052695645169 0.009993620991268833 0 0 0
2173 1 0.005 2500 0.011450827184651034 0.09750106561902952 0.011893878525460613 0 0 0
1825 1 0.005 2500 0.015247329705045443 0.09750086407422698 0.008641435388564045 0 0 0
1028 1 0.005 2500 0.023238367041859356 0.09750058284029453 0.010929455558342247 0 0 0
900 1 0.005 2500 0.028716398435076416 0.09653843038895775 0.010642130509735758 0 0 0
1663 1 0.005 2500 0.03642056258368037 0.09750001561542038 0.00813430920030551 0 0 0
1086 1 0.005 2500 0.04040621518634109 0.09750004100647096 0.011153202626013955 0 0 0
893 1 0.005 2500 0.04501513443697377 0.09750078251964689 0.00920469437574777 0 0 0
1794 1 0.005 2500 0.049473628449021874 0.09750152407184418 0.011466731439195209 0 0 0
1444 1 0.005 2500 0.06439098007493858 0.09749853620864413 0.011939844250039048 0 0 0
1872 1 0.005 2500 0.0693870898330749 0.09750182201763923 0.011837861867407746 0 0 0
814 1 0.005 2500 0.07438477589192576 0.09750065724739614 0.011757681629161588 0 0 0
1741 1 0.005 2500 0.07921086083158674 0.0962304945576076 0.01147468068532168 0 0 0
1259 1 0.005 2500 0.08380037105989349 0.09750047866786865 0.009957235675730241 0 0 0
1112 1 0.005 2500 0.09254861334853555 0.09750022325124409 0.010734694198157249 0 0 0
1563 1 0.005 2500 0.09750121781384481 0.09750148940296142 0.010056725718650229 0 0 0
946 1 0.005 2500 0.006648374852424021 0.0033134983785783867 0.012932712395963851 0 0 0
211 1 0.005 2500 0.010601550316260436 0.0024996990833148726 0.015883544187041174 0 0 0
85 1 0.005 2500 0.015592736650112396 0.0024997314828409923 0.015589419579667585 0 0 0
263 1 0.005 2500 0.022716169830314076 0.0024999424797959953 0.013094335027049299 0 0 0
187 1 0.005 2500 0.03183091825267428 0.0024993004817323305 0.012113524550322151 0 0 0
1348 1 0.005 2500 0.047383534125197954 0.0034357779082945365 0.014672407506797507 0 0 0
1064 1 0.005 2500 0.002499288616677791 0.0059300391618302035 0.013899668353202213 0 0 0
5 1 0.005 2500 0.011459595021130614 0.006579039149039433 0.013123341452657283 0 0 0
2190 1 0.005 2500 0.019442216942854397 0.005685753951791421 0.015753354721761353 0 0 0
192 1 0.005 2500 0.02421647288416772 0.007081827952739894 0.015249133341007961 0 0 0
359 1 0.005 2500 0.028427421906165855 0.004386142578680485 0.015252704158992481 0 0 0
265 1 0.005 2500 0.04455727143902317 0.007444925695558112 0.015640384720943486 0 0 0
743 1 0.005 2500 0.050382370109073885 0.00791100306456765 0.014340205777958257 0 0 0
751 1 0.005 2500 0.06709724961720166 0.007759890201520081 0.014529304106124205 0 0 0
304 1 0.005 2500 0.08158466516166277 0.005451785351278621 0.01233659146216986 0 0 0
1187 1 0.005 2500 0.0026975826315191924 0.010883187575003877 0.013251257557622005 0 0 0
242 1 0.005 2500 0.0068870605243073 0.008311537483214388 0.014163874625068183 0 0 0
1840 1 0.005 2500 0.011293149436245146 0.010932831227881227 0.015575809445377753 0 0 0
1235 1 0.005 2500 0.016175182176287665 0.009421533826802 0.015145750697949436 0 0 0
443 1 0.005 2500 0.02070598090571001 0.011039436270707042 0.013726287113440124 0 0 0
1385 1 0.005 2500 0.026341819977071683 0.011632702116650132 0.014609605804638104 0 0 0
1392 1 0.005 2500 0.031158848285951012 0.008566466734895951 0.015003337663339686 0 0 0
307 1 0.005 2500 0.036321526535011486 0.009626779642784281 0.015939909023226218 0 0 0
1141 1 0.005 2500 0.046431302420345995 0.011026896740577795 0.012698367687295558 0 0 0
708 1 0.005 2500 0.07157081372243458 0.009762582232821379 0.015517026600401197 0 0 0
1356 1 0.005 2500 0.002499492012320502 0.015852930707398183 0.014652353285796765 0 0 0
1557 1 0.005 2500 0.0066833371964700695 0.01318489482882093 0.01526093247065379 0 0 0
1668 1 0.005 2500 0.0155717615329692 0.015214694377424079 0.014957613455345133 0 0 0
975 1 0.005 2500 0.028844650460975802 0.015835333794309406 0.01579247763089023 0 0 0
467 1 0.005 2500 0.033002135857768636 0.013212381620977588 0.01488070949779899 0 0 0
735 1 0.005 2500 0.03782728468063322 0.013863774847384026 0.01374261029387234 0 0 0
647 1 0.005 2500 0.04559645165160459 0.015077977970546667 0.015506350703644726 0 0 0
203 1 0.005 2500 0.050072948231737205 0.014568858130941413 0.013338244770862727 0 0 0
378 1 0.005 2500 0.05511567166399399 0.015277079573121796 0.014638032625376272 0 0 0
457 1 0.005 2500 0.06490785857815144 0.012840377184674276 0.013425435378111344 0 0 0
656 1 0.005 2500 0.07471182621506946 0.014772137569323954 0.01588856597685427 0 0 0
1324 1 0.005 2500 0.07800668998205983 0.01320125384079137 0.012471698329699582 0 0 0
127 1 0.005 2500 0.08173967329412324 0.015778886265054037 0.014573871038261316 0 0 0
1285 1 0.005 2500 0.08782104676228819 0.012826842965357427 0.012354866327197728 0 0 0
122 1 0.005 2500 0.006714026894280175 0.018680794247713205 0.015285580750231974 0 0 0
550 1 0.005 2500 0.019571338610971704 0.018364681463304652 0.014433369331484562 0 0 0
1429 1 0.005 2500 0.024467885686506093 0.018225821341835174 0.015434557531909723 0 0 0
506 1 0.005 2500 0.032601514114401695 0.019089706250787028 0.015251740062873151 0 0 0
10 1 0.005 2500 0.03732629753151229 0.01883725329729983 0.01363717821097171 0 0 0
609 1 0.005 2500 0.05112930668448916 0.01888962637350867 0.015620684756159343 0 0 0
1321 1 0.005 2500 0.059730959404124456 0.01718206041510266 0.014901047872163333 0 0 0
55 1 0.005 2500 0.06592074758363269 0.019218566843008805 0.01457105809206918 0 0 0
280 1 0.005 2500 0.07132517972554833 0.01840765143905195 0.013403649978892705 0 0 0
448 1 0.005 2500 0.0761450498553501 0.0178336137051433 0.012204596214852152 0 0 0
153 1 0.005 2500 0.07901135830917715 0.01978287133122907 0.015807825785001867 0 0 0
536 1 0.005 2500 0.08638362934587618 0.017466355011407347 0.013809439982034408 0 0 0
778 1 0.005 2500 0.005028307396919282 0.023226075121620192 0.012656167181660164 0 0 0
1263 1 0.005 2500 0.009893525365060338 0.02239154269960038 0.014227899559654039 0 0 0
1186 1 0.005 2500 0.014729808906005556 0.020212129716275735 0.014041405305366942 0 0 0
2110 1 0.005 2500 0.022835500710650217 0.022455914695083585 0.013327984394311947 0 0 0
24 1 0.005 2500 0.028240495236769133 0.02149835887188802 0.01566960734930207 0 0 0
730 1 0.005 2500 0.031807909642932994 0.02386383188448858 0.01208763599122206 0 0 0
1666 1 0.005 2500 0.03543199745133472 0.02338825565180501 0.015498854757100937 0 0 0
303 1 0.005 2500 0.04572866824618048 0.023637210115960927 0.014394326255836956 0 0 0
852 1 0.005 2500 0.05067948124862374 0.023868797696938837 0.015581294519785913 0 0 0
1744 1 0.005 2500 0.05500759492022753 0.021739350924239096 0.014266280445392038 0 0 0
63 1 0.005 2500 0.059991667011920845 0.02212424239197816 0.014192378062821928 0 0 0
396 1 0.005 2500 0.0702897850246177 0.023335992903881723 0.01563044006034956 0 0 0
736 1 0.005 2500 0.08308921545420533 0.021148867330555734 0.01304539132241616 0 0 0
334 1 0.005 2500 0.007429149949415528 0.026543924167648364 0.01552272405386179 0 0 0
1462 1 0.005 2500 0.01799501164737346 0.026188531185920207 0.013621983072854003 0 0 0
39 1 0.005 2500 0.026296088244111487 0.025913717931868748 0.014358753622132452 0 0 0
222 1 0.005 2500 0.037028906001054636 0.02787437759943257 0.013975075744207349 0 0 0
1466 1 0.005 2500 0.04062118476550134 0.024648901525586596 0.012677902306566478 0 0 0
271 1 0.005 2500 0.057306880748836164 0.02609069378930816 0.015626067366930924 0 0 0
503 1 0.005 2500 0.06461523462881423 0.02402507035834146 0.014135133664177886 0 0 0
1053 1 0.005 2500 0.07127918991877283 0.027137011230056917 0.01253651984703942 0 0 0
508 1 0.005 2500 0.08049307657272914 0.02484114517104893 0.015196189733743797 0 0 0
1261 1 0.005 2500 0.08529281554056808 0.02798970523777495 0.013245835372608192 0 0 0
608 1 0.005 2500 0.0936638621736385 0.027927965803570976 0.013679759064221551 0 0 0
753 1 0.005 2500 0.0026190106313730165 0.028153170880312193 0.015526293915085016 0 0 0
183 1 0.005 2500 0.01035160110198057 0.028925347631605567 0.012239105408799572 0 0 0
266 1 0.005 2500 0.014659033418562792 0.03126408248118578 0.013220351210821898 0 0 0
53 1 0.005 2500 0.019138776699892186 0.03072927240596233 0.015373234364427517 0 0 0
375 1 0.005 2500 0.022302763404736317 0.02836117141449074 0.012311489179912524 0 0 0
692 1 0.005 2500 0.029928232722586743 0.028496272439839033 0.012093808120984435 0 0 0
773 1 0.005 2500 0.03338567455863008 0.031270866034668006 0.014404946594244426 0 0 0
1316 1 0.005 2500 0.04403459930285029 0.028822473958414727 0.012272229087979127 0 0 0
193 1 0.005 2500 0.04883178966829537 0.02958984983119695 0.01345306364443995 0 0 0
1256 1 0.005 2500 0.060035393277873696 0.03021458731326834 0.014887596542409292 0 0 0
1174 1 0.005 2500 0.06820299911173781 0.030278568568659927 0.01491622602384748 0 0 0
891 1 0.005 2500 0.07490873274563194 0.02870177241907509 0.01559858972825681 0 0 0
456 1 0.005 2500 0.08039730430673139 0.029562492675430305 0.013506387469675009 0 0 0
170 1 0.005 2500 0.08962865825169018 0.030640637961086244 0.014844215052190607 0 0 0
1990 1 0.005 2500 0.0025086605171297117 0.03463379519687928 0.015467551908836205 0 0 0
1747 1 0.005 2500 0.008244282835737672 0.03364404755847315 0.012502856449653769 0 0 0
1817 1 0.005 2500 0.025817515594369077 0.03349434484762315 0.012357158610321566 0 0 0
108 1 0.005 2500 0.030539369169207343 0.03513441543498492 0.015807429300831698 0 0 0
996 1 0.005 2500 0.03480955236127461 0.035923778427372946 0.013256926830295933 0 0 0
1428 1 0.005 2500 0.03914771186046993 0.033519644436892954 0.012270715580027734 0 0 0
978 1 0.005 2500 0.043529176288135525 0.03320034008074979 0.014658192488411633 0 0 0
146 1 0.005 2500 0.04795194639384889 0.03439823367341841 0.012403551745918262 0 0 0
131 1 0.005 2500 0.05262888933793054 0.03330629271474285 0.01385509537592135 0 0 0
431 1 0.005 2500 0.05733714007988553 0.03441180308605953 0.01520061301918351 0 0 0
614 1 0.005 2500 0.06229443658626402 0.03457337232743242 0.0158317260904369 0 0 0
394 1 0.005 2500 0.06774423114367491 0.035254607482744234 0.01476751491369999 0 0 0
544 1 0.005 2500 0.07698281206458571 0.03309696794980012 0.014424822734661898 0 0 0
737 1 0.005 2500 0.08385515175608445 0.03315539276390623 0.013864690030572112 0 0 0
34 1 0.005 2500 0.08792179654698787 0.03583119615971972 0.01500383151570175 0 0 0
111 1 0.005 2500 0.09347321689721864 0.03584823451011924 0.013721467154456487 0 0 0
2037 1 0.005 2500 0.00249938665055102 0.039598382593728304 0.014875849677799912 0 0 0
1485 1 0.005 2500 0.00698659890431525 0.03742862557887548 0.015517801004407732 0 0 0
2062 1 0.005 2500 0.011385934129034702 0.03978717256167645 0.015796776980202237 0 0 0
1240 1 0.005 2500 0.014486544163191891 0.03611421563510092 0.014420892097273706 0 0 0
988 1 0.005 2500 0.019384248563685758 0.03707591295167726 0.014138212774822185 0 0 0
1237 1 0.005 2500 0.024301136410767688 0.0379681913172645 0.01399755681270621 0 0 0
1038 1 0.005 2500 0.039096384298902456 0.0369751663076142 0.015882846637318447 0 0 0
1307 1 0.005 2500 0.04539492419899183 0.037794461421610796 0.01542344738076624 0 0 0
1756 1 0.005 2500 0.050431837859182094 0.037513505516617356 0.01542664152837039 0 0 0
1185 1 0.005 2500 0.05484092890383268 0.03985239678529945 0.015136047605136269 0 0 0
162 1 0.005 2500 0.05969838916117528 0.038845539613419924 0.015760343677660136 0 0 0
992 1 0.005 2500 0.0694933623286047 0.03991611489915087 0.015222433906860894 0 0 0
1087 1 0.005 2500 0.07612130847677175 0.038020677247051576 0.01453085637951939 0 0 0
1403 1 0.005 2500 0.0813925820466006 0.0398014750372071 0.013229538226597263 0 0 0
1827 1 0.005 2500 0.006685845420811211 0.04213223063546019 0.013850795828710655 0 0 0
910 1 0.005 2500 0.016311548664008954 0.04064492099521089 0.015815790512036968 0 0 0
1300 1 0.005 2500 0.021401063768735913 0.04183979405156683 0.0154554722914383 0 0 0
1376 1 0.005 2500 0.02510374222668493 0.0430406583311508 0.01222093840355578 0 0 0
1384 1 0.005 2500 0.02820796729008445 0.04160390535111748 0.01586682638485068 0 0 0
924 1 0.005 2500 0.03273748647828324 0.0403879033925595 0.01413591898156841 0 0 0
350 1 0.005 2500 0.038722929668847855 0.041954352252473945 0.0156293020978748 0 0 0
1474 1 0.005 2500 0.04332938137407718 0.04201444840566236 0.013686592052466594 0 0 0
547 1 0.005 2500 0.04828479489961347 0.04189577464664365 0.014339443701938298 0 0 0
615 1 0.005 2500 0.06270202464438399 0.042187191988481976 0.013150545179152094 0 0 0
1533 1 0.005 2500 0.07385239419532708 0.04230926108466268 0.015738070526154956 0 0 0
103 1 0.005 2500 0.07857025714529398 0.043638163836800914 0.014753028974096477 0 0 0
1706 1 0.005 2500 0.09094215454002813 0.040239446038583294 0.015001663579050346 0 0 0
769 1 0.005 2500 0.09750019520051635 0.04067177638394853 0.015084816336669495 0 0 0
1203 1 0.005 2500 0.002520446674512682 0.04453146465394237 0.015685464376021693 0 0 0
1486 1 0.005 2500 0.00685838686461315 0.04710234170457252 0.014361914251600499 0 0 0
323 1 0.005 2500 0.01274909401033696 0.047314576703776305 0.012636818195491253 0 0 0
42 1 0.005 2500 0.017902461591419665 0.04473077047027895 0.013358064834508092 0 0 0
982 1 0.005 2500 0.023786685877321218 0.04793055424164617 0.014905385807315505 0 0 0
1650 1 0.005 2500 0.030702847008024156 0.04574881055932606 0.014604979375604276 0 0 0
1876 1 0.005 2500 0.03504294635734309 0.044589020598516556 0.012410493200203185 0 0 0
803 1 0.005 2500 0.042835502755892235 0.0468406935265234 0.012477727073303788 0 0 0
1630 1 0.005 2500 0.04716031021067817 0.04672450309663988 0.014982339795957481 0 0 0
1227 1 0.005 2500 0.05360806673116802 0.04467865048708204 0.01470836133534845 0 0 0
642 1 0.005 2500 0.05854691731830365 0.04423015589718607 0.015344594428027603 0 0 0
1659 1 0.005 2500 0.06359477350367734 0.04705756117221528 0.01384152402126613 0 0 0
729 1 0.005 2500 0.06911181270017779 0.04754104066899973 0.01334654322655579 0 0 0
2192 1 0.005 2500 0.07377192853516161 0.047598572987783645 0.015156907576648814 0 0 0
1277 1 0.005 2500 0.08332125682472817 0.04519156721923884 0.014645314523462552 0 0 0
548 1 0.005 2500 0.08827743641136705 0.044703633541029755 0.015088129466855142 0 0 0
1711 1 0.005 2500 0.09345719150860848 0.045643945651475386 0.013598792185117833 0 0 0
2193 1 0.005 2500 0.0024991348362656232 0.04915876830054357 0.013036691230287384 0 0 0
1857 1 0.005 2500 0.008172334554512583 0.05198514021722071 0.014129162157979295 0 0 0
1320 1 0.005 2500 0.016187897549207925 0.05062495283137359 0.014124134394491346 0 0 0
1899 1 0.005 2500 0.028350530777715315 0.050491979184301115 0.014773799643527196 0 0 0
2169 1 0.005 2500 0.0336265526833245 0.050462187774248955 0.01379766465133422 0 0 0
1873 1 0.005 2500 0.038152806053617205 0.04841420059857461 0.013242467603308989 0 0 0
291 1 0.005 2500 0.053096008858888176 0.0496452248733203 0.014450815877447171 0 0 0
1757 1 0.005 2500 0.05801562588278849 0.04908923474705489 0.013756541721413244 0 0 0
1224 1 0.005 2500 0.07102175935972987 0.05169509131056178 0.015965229375678784 0 0 0
206 1 0.005 2500 0.07591419338215155 0.051878399010436595 0.013712222182452563 0 0 0
1470 1 0.005 2500 0.08620044776889933 0.04925078986787799 0.015356166756573817 0 0 0
1329 1 0.005 2500 0.0931681536102575 0.05158192835191032 0.013448554554267482 0 0 0
1346 1 0.005 2500 0.0974978386003712 0.049097930945364576 0.013107607058543793 0 0 0
1125 1 0.005 2500 0.0027590001648729575 0.05334524660366224 0.015756289112349147 0 0 0
1268 1 0.005 2500 0.020995488251762364 0.0520254977311342 0.014245643203725287 0 0 0
1453 1 0.005 2500 0.02536808321135126 0.054499293845657444 0.014963008423758237 0 0 0
1738 1 0.005 2500 0.030293642961981844 0.05559148141161615 0.013743905505839165 0 0 0
464 1 0.005 2500 0.03665616727229294 0.05442196130121838 0.01340408843421758 0 0 0
1919 1 0.005 2500 0.04154160934242275 0.055885918492096086 0.013945236183019363 0 0 0
1195 1 0.005 2500 0.044757904087756706 0.05207121939143213 0.01363397502831772 0 0 0
967 1 0.005 2500 0.050377976391001424 0.05563138356393329 0.01457693681982397 0 0 0
173 1 0.005 2500 0.05866974865254849 0.05531901117591038 0.014447310031445108 0 0 0
1191 1 0.005 2500 0.06320114153417491 0.05288523556205543 0.012478660429935128 0 0 0
850 1 0.005 2500 0.06760804816127919 0.05473865783708495 0.013941207670180436 0 0 0
960 1 0.005 2500 0.07873774404968222 0.05566336439064667 0.01207053081397592 0 0 0
155 1 0.005 2500 0.08087966840889753 0.05201613247933684 0.014879073171707816 0 0 0
58 1 0.005 2500 0.08473774123098998 0.055534434953148075 0.01595924452360597 0 0 0
241 1 0.005 2500 0.0889648533843038 0.05422059321525154 0.012844436034808905 0 0 0
1736 1 0.005 2500 0.0975009217259325 0.05402954586600072 0.013928135024853034 0 0 0
881 1 0.005 2500 0.002498989745161684 0.05666901064533984 0.01203148690006251 0 0 0
1198 1 0.005 2500 0.00648620945500355 0.05660098024097044 0.015046417452496906 0 0 0
2008 1 0.005 2500 0.011056434538656295 0.059162825927781215 0.014258376451354388 0 0 0
270 1 0.005 2500 0.016415815524601876 0.05813399179442924 0.012093603978385941 0 0 0
1177 1 0.005 2500 0.019979259159122877 0.0587956032484804 0.01553646809640359 0 0 0
1743 1 0.005 2500 0.024915393365853432 0.05947580835443446 0.01513265981438105 0 0 0
1632 1 0.005 2500 0.03653890049033267 0.05935858250333414 0.014195296914491666 0 0 0
901 1 0.005 2500 0.054637257056208706 0.0581288355841525 0.015362727831558341 0 0 0
393 1 0.005 2500 0.06399073543012604 0.05820859349927774 0.014319930341341686 0 0 0
917 1 0.005 2500 0.07011295319690174 0.05881661246750052 0.015386566063943771 0 0 0
704 1 0.005 2500 0.07452912242835917 0.05659917515969794 0.01460231885435196 0 0 0
1250 1 0.005 2500 0.08161267353726534 0.05907723079448479 0.014322572159423858 0 0 0
205 1 0.005 2500 0.08896598289126716 0.05835281326633365 0.01565908346278936 0 0 0
1145 1 0.005 2500 0.09324713148166905 0.05664719174263435 0.013720896739143144 0 0 0
2041 1 0.005 2500 0.09750035196409491 0.05867937608152371 0.01576519026825766 0 0 0
1102 1 0.005 2500 0.0024995094531685526 0.06094847137744415 0.014615218080788726 0 0 0
2143 1 0.005 2500 0.006987249470799285 0.061451854661371215 0.012470407749651195 0 0 0
1408 1 0.005 2500 0.010555378749933722 0.06388835564530357 0.01581301721109646 0 0 0
1842 1 0.005 2500 0.014510259401638283 0.06266350063622077 0.013011061240915799 0 0 0
1969 1 0.005 2500 0.029468414860385095 0.06057487880577117 0.013385292022876444 0 0 0
1468 1 0.005 2500 0.03363920584875818 0.06333016547989999 0.013294490107145025 0 0 0
1100 1 0.005 2500 0.04127926221342472 0.06088631982634524 0.01375847011570325 0 0 0
1640 1 0.005 2500 0.046566340959710406 0.06240052082717438 0.013708156521301657 0 0 0
882 1 0.005 2500 0.051153433316507936 0.060633175544312586 0.012796681538316982 0 0 0
1442 1 0.005 2500 0.05947164101712801 0.06021519020560015 0.015058655273471305 0 0 0
249 1 0.005 2500 0.0659118253841368 0.06282006100300011 0.014125064831728061 0 0 0
1002 1 0.005 2500 0.07242193166352674 0.06292827016197561 0.01372637249830291 0 0 0
860 1 0.005 2500 0.07697875990686327 0.060953404469202735 0.014307706079992757 0 0 0
328 1 0.005 2500 0.09308619072655232 0.061437677560280485 0.015143110851985744 0 0 0
1909 1 0.005 2500 0.0975002262021274 0.06338115636333 0.013665025170598285 0 0 0
1424 1 0.005 2500 0.007104342102516252 0.06639507904531322 0.013206072520485354 0 0 0
1426 1 0.005 2500 0.018664627670181493 0.06544022532734912 0.01286426639842122 0 0 0
1956 1 0.005 2500 0.02660314904708983 0.06443632172478704 0.014753147437175181 0 0 0
2093 1 0.005 2500 0.0390504238244922 0.06605487894386138 0.013735504083575876 0 0 0
2015 1 0.005 2500 0.055941897173823786 0.06572581165741236 0.014127601968958674 0 0 0
1496 1 0.005 2500 0.061748851059294604 0.06557443426315465 0.013841732728199042 0 0 0
1740 1 0.005 2500 0.06883821305522277 0.06686364820057453 0.01371198604744337 0 0 0
1541 1 0.005 2500 0.07702725955081564 0.06596918722361932 0.01311660885496477 0 0 0
529 1 0.005 2500 0.08324857149818396 0.06489093548265351 0.014846611048545743 0 0 0
387 1 0.005 2500 0.08804447108023133 0.0641407384446791 0.013649626812744326 0 0 0
1449 1 0.005 2500 0.09181172443313036 0.06724825768940305 0.0125798975605238 0 0 0
1723 1 0.005 2500 0.0024986922438966414 0.0709653474990419 0.013616785586122598 0 0 0
73 1 0.005 2500 0.011181558593171449 0.06876923074885946 0.014857673999090965 0 0 0
481 1 0.005 2500 0.017101497478471953 0.07075571077653262 0.014271784403115365 0 0 0
1811 1 0.005 2500 0.021991979879137168 0.06867954991954493 0.014715669802879718 0 0 0
1249 1 0.005 2500 0.0319377954406409 0.07079320643764693 0.01395356673190121 0 0 0
940 1 0.005 2500 0.03683658722730847 0.0704516661394045 0.012860234109080021 0 0 0
398 1 0.005 2500 0.04372238111533536 0.0689935751261765 0.013874766146841473 0 0 0
839 1 0.005 2500 0.04828135406467273 0.07103891353774526 0.014050312845540123 0 0 0
1155 1 0.005 2500 0.057909144475201936 0.07017228974096115 0.012962830860172806 0 0 0
1193 1 0.005 2500 0.0645559241133308 0.06980273630392426 0.013480378393653068 0 0 0
2119 1 0.005 2500 0.07211096037122068 0.07057995450900734 0.013023823523094178 0 0 0
1343 1 0.005 2500 0.07910076148959003 0.07043949992463003 0.014093570310940226 0 0 0
1418 1 0.005 2500 0.08786309258260123 0.0692925273795314 0.014866293809580624 0 0 0
1475 1 0.005 2500 0.09340783126732848 0.07171365709034662 0.015376630354799312 0 0 0
1455 1 0.005 2500 0.09750080704147107 0.0696534619165366 0.01337660989287339 0 0 0
1049 1 0.005 2500 0.0024987696997558037 0.07594284177784827 0.014080289790522957 0 0 0
1284 1 0.005 2500 0.008944606328100858 0.07300000467715337 0.013411468405961533 0 0 0
1325 1 0.005 2500 0.02101602776932694 0.07386492277560518 0.014276359890620283 0 0 0
530 1 0.005 2500 0.025469813707227274 0.07593135981298287 0.015217614043724428 0 0 0
578 1 0.005 2500 0.035103121161213474 0.0743616841873347 0.015448512304842427 0 0 0
1479 1 0.005 2500 0.039723284182954934 0.07573731499041154 0.014124542813148839 0 0 0
1730 1 0.005 2500 0.04451806521792366 0.07440114725657823 0.01365754364099813 0 0 0
1751 1 0.005 2500 0.051168981206795694 0.07464493033314919 0.01596151097594194 0 0 0
915 1 0.005 2500 0.053348032478432825 0.07201811598848024 0.012078725479261298 0 0 0
907 1 0.005 2500 0.06719506539110241 0.07404418360076795 0.013301310242375606 0 0 0
261 1 0.005 2500 0.07151789495034326 0.07475424779597314 0.015709857530966265 0 0 0
1771 1 0.005 2500 0.07546617078567817 0.07419477054733209 0.012204762495536904 0 0 0
1369 1 0.005 2500 0.07945076468930322 0.07530269293622753 0.015751282499167372 0 0 0
433 1 0.005 2500 0.08445330030607556 0.07429034690231746 0.015900282143581454 0 0 0
1423 1 0.005 2500 0.08926099782118363 0.0739501825666285 0.013705031942032526 0 0 0
1905 1 0.005 2500 0.09739470594803418 0.07459867699859883 0.014105032470003111 0 0 0
1441 1 0.005 2500 0.0070112368439029715 0.07776176183360474 0.01293483510078176 0 0 0
2133 1 0.005 2500 0.012787054303717078 0.07609389437553855 0.014219896826565756 0 0 0
1052 1 0.005 2500 0.017547268107266225 0.07745796577034036 0.014902744167426998 0 0 0
821 1 0.005 2500 0.03170985875753482 0.07863926339797438 0.013699891206074233 0 0 0
408 1 0.005 2500 0.03647327553486095 0.07915740687432964 0.01578487303341449 0 0 0
1812 1 0.005 2500 0.04818673811202194 0.07774420328490857 0.013060801294372332 0 0 0
871 1 0.005 2500 0.05533870776629528 0.07656287441178551 0.013978940951704006 0 0 0
1968 1 0.005 2500 0.060321478982602594 0.07697149540083367 0.013963782150159539 0 0 0
2031 1 0.005 2500 0.06399482744390693 0.07994996538953586 0.01558751759384808 0 0 0
1806 1 0.005 2500 0.06997210449012191 0.07923364615014275 0.01411636920427232 0 0 0
757 1 0.005 2500 0.07486988564796612 0.07837076727865573 0.014888625930197198 0 0 0
1270 1 0.005 2500 0.07907351114092194 0.07882394270338049 0.012221877096148167 0 0 0
59 1 0.005 2500 0.08394629715638079 0.07770888534103466 0.012287181370545354 0 0 0
1093 1 0.005 2500 0.08884825247494665 0.07868213021850479 0.012144799591063784 0 0 0
774 1 0.005 2500 0.09272776319393611 0.07878193975592601 0.01554364768794903 0 0 0
1065 1 0.005 2500 0.09750048674075608 0.07959673239178038 0.014298656795540723 0 0 0
920 1 0.005 2500 0.0024990443288402543 0.08227012979463011 0.015495076501339041 0 0 0
1301 1 0.005 2500 0.006804270698118619 0.08345937017989867 0.013248346193924086 0 0 0
1519 1 0.005 2500 0.01080613663672934 0.08068139442979141 0.014373065435702874 0 0 0
1524 1 0.005 2500 0.022938686715160122 0.0801979472125652 0.014601115310747708 0 0 0
477 1 0.005 2500 0.02627578721599472 0.08392016847146976 0.014693885032462746 0 0 0
1238 1 0.005 2500 0.034526761425675304 0.08350353265653244 0.014263044571358685 0 0 0
714 1 0.005 2500 0.039526922536059377 0.08224749068748882 0.013312452802929215 0 0 0
1034 1 0.005 2500 0.04491453622343054 0.0811521801918738 0.014694477333416984 0 0 0
681 1 0.005 2500 0.05738586456029025 0.08300008759997508 0.012918199391417624 0 0 0
52 1 0.005 2500 0.07286732528578403 0.0829927507011643 0.012541869636340058 0 0 0
1211 1 0.005 2500 0.07934473407144091 0.08297002547434162 0.015001678594238713 0 0 0
841 1 0.005 2500 0.08428132667387767 0.08375530941834396 0.015066432812017971 0 0 0
1251 1 0.005 2500 0.08909780498527453 0.083401642310764 0.013775649408111478 0 0 0
876 1 0.005 2500 0.009240653700509464 0.0877952462265503 0.01273768868435209 0 0 0
1510 1 0.005 2500 0.013266561593718544 0.08484392373518891 0.013102984806594548 0 0 0
943 1 0.005 2500 0.018142942378560317 0.08453453541617655 0.01204282042536303 0 0 0
715 1 0.005 2500 0.021324251796500555 0.0847495218811952 0.015893797021687396 0 0 0
636 1 0.005 2500 0.03061742006515712 0.08663734147474637 0.014440105216266687 0 0 0
1254 1 0.005 2500 0.04331192341983487 0.0854597816118741 0.012727411852074958 0 0 0
95 1 0.005 2500 0.04856883926835347 0.08415721234818369 0.012899468754342556 0 0 0
663 1 0.005 2500 0.05287004500510649 0.08522905700251414 0.015212601633726645 0 0 0
1397 1 0.005 2500 0.05715963864634216 0.08790043885839953 0.015351709992435712 0 0 0
171 1 0.005 2500 0.0629297892375559 0.08542232359210852 0.013195071099438908 0 0 0
1401 1 0.005 2500 0.0677352876845262 0.08645294202561217 0.014770242701268366 0 0 0
511 1 0.005 2500 0.09341772872189713 0.085839171049536 0.014395903358943581 0 0 0
507 1 0.005 2500 0.0024996474726593585 0.08844708684700855 0.015517412287623624 0 0 0
401 1 0.005 2500 0.013627855397381585 0.0903060872051285 0.015414935791751865 0 0 0
939 1 0.005 2500 0.018290081678956693 0.08960025146483704 0.012023504307411177 0 0 0
149 1 0.005 2500 0.02396855159688973 0.0881485444406416 0.013354408077437265 0 0 0
1116 1 0.005 2500 0.02851494006709207 0.09197044618048716 0.012662529715575436 0 0 0
337 1 0.005 2500 0.035171135605899156 0.08837799406808328 0.015546218084622124 0 0 0
324 1 0.005 2500 0.038974901452012586 0.08826746941705987 0.012304727047915083 0 0 0
1800 1 0.005 2500 0.0467732008376128 0.08842789366345172 0.014779534134430153 0 0 0
1231 1 0.005 2500 0.07138588798456404 0.0897429165463782 0.01386097819870352 0 0 0
949 1 0.005 2500 0.07962832344429446 0.08941266889129997 0.013040855676151979 0 0 0
836 1 0.005 2500 0.08480674502412701 0.08864382394673412 0.01280097176881269 0 0 0
1342 1 0.005 2500 0.08820000854901609 0.09130865052351689 0.015326127919060576 0 0 0
866 1 0.005 2500 0.09750078819652794 0.08869898440967094 0.014768535666346672 0 0 0
494 1 0.005 2500 0.003594711035436534 0.09329310167164488 0.014957530305544612 0 0 0
474 1 0.005 2500 0.009851378653685062 0.09328984827715994 0.014061602280260916 0 0 0
1075 1 0.005 2500 0.014784950207592988 0.09377815900290393 0.012009187970597458 0 0 0
1229 1 0.005 2500 0.021070274301245744 0.09359349749273016 0.013171090422275397 0 0 0
399 1 0.005 2500 0.03346367102102015 0.09270632898902255 0.013530012583860768 0 0 0
98 1 0.005 2500 0.04152817275611557 0.09484325988059061 0.015497109489215061 0 0 0
972 1 0.005 2500 0.04586753275121561 0.09442685347519213 0.013053157952619018 0 0 0
1473 1 0.005 2500 0.0498846737233474 0.09235925800937093 0.015192654547256839 0 0 0
2065 1 0.005 2500 0.05385136149873647 0.09253445714413146 0.012155426037734703 0 0 0
888 1 0.005 2500 0.058339933463367175 0.0930532050087914 0.014295477213142076 0 0 0
754 1 0.005 2500 0.06386518033963585 0.0928044781385873 0.013577926707979707 0 0 0
1416 1 0.005 2500 0.0747743502666394 0.09335640722564699 0.014525921569479057 0 0 0
1220 1 0.005 2500 0.08336163523055415 0.09254228454318565 0.015576998548811897 0 0 0
2136 1 0.005 2500 0.09178048426481816 0.09476421234146702 0.014847571982463862 0 0 0
2023 1 0.005 2500 0.0975003744091012 0.09322387533164153 0.012643195310446087 0 0 0
293 1 0.005 2500 0.0024986518118711434 0.09750098422336093 0.012492870369300104 0 0 0
1152 1 0.005 2500 0.007312509201992636 0.09750025732303988 0.014969431844418056 0 0 0
1574 1 0.005 2500 0.017952858279064714 0.09750055596678683 0.01305908661452263 0 0 0
873 1 0.005 2500 0.02451037547570069 0.09734809268730375 0.015761077863057214 0 0 0
591 1 0.005 2500 0.029674590459632114 0.09750046555324518 0.015452980301746385 0 0 0
513 1 0.005 2500 0.03339552957248097 0.09750065767223665 0.012113973897721493 0 0 0
216 1 0.005 2500 0.037302714776567054 0.09750081036299398 0.01523203477324304 0 0 0
1317 1 0.005 2500 0.054406987289991354 0.09750091620512072 0.012264812114690203 0 0 0
1765 1 0.005 2500 0.05940432443133299 0.09750052566687702 0.012263046396154595 0 0 0
564 1 0.005 2500 0.0772185225930548 0.097501292976061 0.015879521318895223 0 0 0
1550 1 0.005 2500 0.0834665055818762 0.09750049789619812 0.014945597292868883 0 0 0
164 1 0.005 2500 0.08796304034038137 0.09747020545627053 0.012724575334339322 0 0 0
227 1 0.005 2500 0.09596466461885111 0.09750024810191156 0.014813959751066906 0 0 0
545 1 0.005 2500 0.004108422037871498 0.0024997732285394394 0.01716166614716866 0 0 0
455 1 0.005 2500 0.004278987006583011 0.007390483878969276 0.018337596156188036 0 0 0
1565 1 0.005 2500 0.013255121332606801 0.006336594133699053 0.017783105820883587 0 0 0
1171 1 0.005 2500 0.008100751989355516 0.010436946232284932 0.01939129263118051 0 0 0
22 1 0.005 2500 0.021308253722296236 0.009569091414573083 0.018466757487382298 0 0 0
321 1 0.005 2500 0.04111409381817426 0.011023471333612133 0.01622133474978426 0 0 0
1374 1 0.005 2500 0.0024998619722686917 0.012057532198320427 0.018106876647971303 0 0 0
727 1 0.005 2500 0.010774689833655005 0.015905652150511262 0.016184787016897167 0 0 0
231 1 0.005 2500 0.013810977252544165 0.013265017332624765 0.01921145200697832 0 0 0
687 1 0.005 2500 0.02146394131345715 0.014611726742838909 0.017141043908040984 0 0 0
413 1 0.005 2500 0.0024998317802417 0.016843741316677326 0.0195527112240252 0 0 0
422 1 0.005 2500 0.007739439113629521 0.017187213803336553 0.01994545307960004 0 0 0
1358 1 0.005 2500 0.017252149410737463 0.017883913685610334 0.0188365589537962 0 0 0
722 1 0.005 2500 0.022037791971006852 0.019021974627546158 0.01973076510323134 0 0 0
540 1 0.005 2500 0.027190239350175838 0.01860676692453074 0.019610868161135966 0 0 0
6 1 0.005 2500 0.035857521865461185 0.016189486842633466 0.01770580187967392 0 0 0
789 1 0.005 2500 0.0409553576291265 0.0166937031750496 0.01642608035886039 0 0 0
418 1 0.005 2500 0.04648799874882344 0.019652224597583822 0.01731640921338067 0 0 0
112 1 0.005 2500 0.056199971036268614 0.018736097751044005 0.018081499838751815 0 0 0
345 1 0.005 2500 0.002499587028112568 0.021119492128594663 0.01641970732048639 0 0 0
2083 1 0.005 2500 0.0071679873463678405 0.02251128570703474 0.01846637783081428 0 0 0
86 1 0.005 2500 0.012014937423605404 0.020291994146282192 0.01823888426785412 0 0 0
169 1 0.005 2500 0.01936928826927876 0.022695000012131282 0.01692349220418687 0 0 0
486 1 0.005 2500 0.02420688597971305 0.023211732065099567 0.018075864108688926 0 0 0
1257 1 0.005 2500 0.034561519188295434 0.020638559383420158 0.019582724258268038 0 0 0
559 1 0.005 2500 0.03836363217003898 0.023904340975709475 0.019515957438927693 0 0 0
296 1 0.005 2500 0.04167321752227253 0.021640284430706227 0.01652988053651519 0 0 0
278 1 0.005 2500 0.06240331086675293 0.020019050036879104 0.018032915556685687 0 0 0
1164 1 0.005 2500 0.07569151080907364 0.023790262377218693 0.016111850788582436 0 0 0
1146 1 0.005 2500 0.0024997553701041958 0.025081476017036485 0.01946905758673636 0 0 0
528 1 0.005 2500 0.013892414637616911 0.024630423429612636 0.01622649312454095 0 0 0
344 1 0.005 2500 0.017572050964183787 0.027124727029835833 0.018514887271039417 0 0 0
331 1 0.005 2500 0.030844301565649872 0.02616429741371366 0.01642027362864727 0 0 0
781 1 0.005 2500 0.03511811815342025 0.02759206339747458 0.018586364660263886 0 0 0
445 1 0.005 2500 0.04139436469627394 0.027881971191134707 0.0164122649337265 0 0 0
1033 1 0.005 2500 0.047429985320780355 0.027110786261056192 0.01756225466520852 0 0 0
1293 1 0.005 2500 0.002499549066994196 0.030949962426518447 0.019668511364500926 0 0 0
1226 1 0.005 2500 0.006356378438450471 0.031325630346140436 0.016509245611881277 0 0 0
430 1 0.005 2500 0.011267962954230775 0.029310129905138815 0.017138704882035203 0 0 0
7 1 0.005 2500 0.023472712319708367 0.028965762313648717 0.017134767014976692 0 0 0
1576 1 0.005 2500 0.02797518437650367 0.030848919791327492 0.016048774179546206 0 0 0
613 1 0.005 2500 0.038270438962154214 0.03175925851599061 0.016866967964425886 0 0 0
319 1 0.005 2500 0.04445152586212644 0.030847956185509413 0.019030281058909703 0 0 0
713 1 0.005 2500 0.052865916268520226 0.028332286345241754 0.016124898788530174 0 0 0
68 1 0.005 2500 0.05676029754853407 0.0301706031223654 0.018664885141342458 0 0 0
619 1 0.005 2500 0.06412848991035733 0.02816402653476037 0.016897161838369257 0 0 0
630 1 0.005 2500 0.07142989006305377 0.030457731144745506 0.01873094604332467 0 0 0
835 1 0.005 2500 0.08550357653878145 0.030340242926440476 0.01765351374156031 0 0 0
78 1 0.005 2500 0.09561808673281129 0.03182598143475835 0.01612613670500263 0 0 0
468 1 0.005 2500 0.005281487112711724 0.03510331479437934 0.019601662437068252 0 0 0
498 1 0.005 2500 0.010583500060960004 0.03425841045282938 0.016934534034032285 0 0 0
215 1 0.005 2500 0.01511307077981526 0.03245095977022764 0.018055364196078047 0 0 0
701 1 0.005 2500 0.018849840079936713 0.035662166969598404 0.018903489187357483 0 0 0
409 1 0.005 2500 0.02285149101867915 0.033884757176249385 0.016490633261311144 0 0 0
745 1 0.005 2500 0.02682975630914036 0.03428866243350439 0.0194910070839647 0 0 0
62 1 0.005 2500 0.04272975953037617 0.03554143652250785 0.01900328483767911 0 0 0
1372 1 0.005 2500 0.04858073261349559 0.03294962385903153 0.017147068300562524 0 0 0
176 1 0.005 2500 0.05324335794395846 0.03372187193822258 0.018799341722089805 0 0 0
252 1 0.005 2500 0.06595521536157146 0.03269483939513807 0.018672080021005035 0 0 0
799 1 0.005 2500 0.0725124923789813 0.03457356783963924 0.016106757611622495 0 0 0
570 1 0.005 2500 0.07660629978781706 0.03535799310782011 0.018868018618799155 0 0 0
325 1 0.005 2500 0.08062073994885208 0.03221408452791095 0.017739067136680345 0 0 0
342 1 0.005 2500 0.09153515101522748 0.03405002698310225 0.017965041637329152 0 0 0
1359 1 0.005 2500 0.0024995402381270387 0.039248602394576275 0.01986270166858001 0 0 0
510 1 0.005 2500 0.008365718706632563 0.03962794454833537 0.01979047472968859 0 0 0
287 1 0.005 2500 0.0139404245044517 0.03716743831688215 0.019277617186699066 0 0 0
2000 1 0.005 2500 0.02516609031053921 0.03895594921283492 0.018821664721003124 0 0 0
201 1 0.005 2500 0.03013463440652657 0.038020533186627986 0.019869349060289285 0 0 0
1445 1 0.005 2500 0.03466576482791119 0.03674365659729905 0.018186679173762075 0 0 0
525 1 0.005 2500 0.047971708346573244 0.03874626185811788 0.019600790041140095 0 0 0
47 1 0.005 2500 0.057045316369721884 0.036902160119772986 0.019526115357896476 0 0 0
77 1 0.005 2500 0.06472348583904677 0.0389131381463737 0.01634248926539063 0 0 0
1295 1 0.005 2500 0.07215135759734666 0.03847984616596176 0.01920611386565829 0 0 0
64 1 0.005 2500 0.08305304978569591 0.03657109760177787 0.017426399556502846 0 0 0
739 1 0.005 2500 0.019313642563262526 0.040556305135726896 0.019812981943315596 0 0 0
1487 1 0.005 2500 0.03260198585740273 0.04304376846421241 0.018369599451274386 0 0 0
438 1 0.005 2500 0.04270800361854192 0.042004390059091935 0.018647612937326957 0 0 0
812 1 0.005 2500 0.04741336232087159 0.04366951081727791 0.018931940965142037 0 0 0
1019 1 0.005 2500 0.05214517008839047 0.04207024498450535 0.01871484040374536 0 0 0
600 1 0.005 2500 0.05695650390050476 0.042797468044351965 0.019862833014557837 0 0 0
36 1 0.005 2500 0.06181523772816284 0.04188124298744773 0.01912197570948816 0 0 0
1443 1 0.005 2500 0.06633165590933056 0.043646294808200516 0.01626364089963804 0 0 0
1341 1 0.005 2500 0.07679987690483765 0.040338368248746204 0.019262898934831633 0 0 0
499 1 0.005 2500 0.08154620554309831 0.04130118249574526 0.018020741457461253 0 0 0
669 1 0.005 2500 0.08607130246493207 0.04033854529039696 0.016125139320807117 0 0 0
662 1 0.005 2500 0.092203346067799 0.043933188018606274 0.018126295562938658 0 0 0
314 1 0.005 2500 0.006802712650303692 0.04417299823125939 0.018412902841703646 0 0 0
1993 1 0.005 2500 0.013118065116657019 0.04439380861607016 0.016677052410125324 0 0 0
269 1 0.005 2500 0.019286927481396515 0.04776893379949369 0.017079084743798652 0 0 0
2075 1 0.005 2500 0.024739133283965545 0.044320199450942684 0.01822958010756118 0 0 0
905 1 0.005 2500 0.028568211947200776 0.04749964722674222 0.01877307546025691 0 0 0
556 1 0.005 2500 0.03352830996070042 0.04795057103522059 0.018119080832423032 0 0 0
1853 1 0.005 2500 0.03827978409748376 0.04642280331849928 0.017826581276609254 0 0 0
746 1 0.005 2500 0.05097141885615868 0.0471039149253949 0.01819549650664843 0 0 0
340 1 0.005 2500 0.0559689351650422 0.04755088483508259 0.018050841128355997 0 0 0
424 1 0.005 2500 0.061544057139606825 0.04682025770773015 0.01839498131732569 0 0 0
317 1 0.005 2500 0.07056689613166668 0.04537302791497087 0.018282403112677245 0 0 0
1175 1 0.005 2500 0.07629111699008347 0.045365701021789696 0.018853696910494128 0 0 0
709 1 0.005 2500 0.08120556550598058 0.04626584272189307 0.019045906492188895 0 0 0
130 1 0.005 2500 0.09750022662558594 0.045456905800008066 0.01653402672119202 0 0 0
449 1 0.005 2500 0.002498926565654194 0.04892293213904803 0.018073486586477647 0 0 0
245 1 0.005 2500 0.006848578925587495 0.051245783406061916 0.01889226373769724 0 0 0
202 1 0.005 2500 0.010765949101520634 0.04879536783126789 0.016980060880697118 0 0 0
1593 1 0.005 2500 0.015803580188979555 0.05072678830050941 0.019107530069896742 0 0 0
1305 1 0.005 2500 0.023339154341362946 0.04885598956600955 0.019798031186198724 0 0 0
2079 1 0.005 2500 0.03737328316800559 0.05130503016664603 0.017246337452033488 0 0 0
1843 1 0.005 2500 0.04295872687078596 0.0481069558462944 0.017312259657928448 0 0 0
811 1 0.005 2500 0.04881055714394594 0.051268520289889846 0.016449546011760234 0 0 0
152 1 0.005 2500 0.058731119988367865 0.0517381313550488 0.017936051569736065 0 0 0
725 1 0.005 2500 0.06616083929242009 0.05057425706819153 0.016298332048900997 0 0 0
487 1 0.005 2500 0.07799185616999514 0.0500502211424541 0.018455309631999806 0 0 0
791 1 0.005 2500 0.08373389812962453 0.05167059048587175 0.01896952134268433 0 0 0
25 1 0.005 2500 0.09094773489659709 0.04857992268629629 0.016773424393898617 0 0 0
796 1 0.005 2500 0.012531813928476809 0.053445847700060924 0.01648172353355411 0 0 0
1299 1 0.005 2500 0.018769804570707108 0.05457397965028265 0.017925968770891944 0 0 0
1724 1 0.005 2500 0.026892745623536933 0.0523205072274718 0.019196413356570352 0 0 0
1302 1 0.005 2500 0.031635377333925505 0.05285637353426555 0.017708288458333183 0 0 0
1504 1 0.005 2500 0.04202926810013586 0.052973427696957925 0.017979196465890253 0 0 0
258 1 0.005 2500 0.04582903362313043 0.05592878015275486 0.016628485514292937 0 0 0
820 1 0.005 2500 0.04982523089316424 0.05510441805123541 0.019517778568160126 0 0 0
824 1 0.005 2500 0.05411228412345894 0.05357803361217038 0.017365062489514287 0 0 0
531 1 0.005 2500 0.06297178030704462 0.05430113362825399 0.01726758545407981 0 0 0
305 1 0.005 2500 0.06811414295531498 0.054121441054392115 0.019229924122068157 0 0 0
450 1 0.005 2500 0.07465060557379755 0.053760140662386886 0.01871557794731321 0 0 0
106 1 0.005 2500 0.07881973602488936 0.055995341493475036 0.017097023309723288 0 0 0
766 1 0.005 2500 0.08865630152484501 0.052941535846214034 0.0176678745048637 0 0 0
83 1 0.005 2500 0.09359268947077269 0.05252239727626026 0.018340712576472427 0 0 0
828 1 0.005 2500 0.09750044806539301 0.05540087484049023 0.019539766915282693 0 0 0
1689 1 0.005 2500 0.0024999282694583894 0.05761618200889207 0.018342283248242847 0 0 0
1495 1 0.005 2500 0.009902911265865422 0.057096317630687864 0.018662158072232232 0 0 0
788 1 0.005 2500 0.015071514090693539 0.05777678220162949 0.016895296314175533 0 0 0
226 1 0.005 2500 0.02337052030646397 0.056636708440907534 0.019016515266012987 0 0 0
333 1 0.005 2500 0.028270939334012774 0.05717012126491801 0.018034597060129942 0 0 0
646 1 0.005 2500 0.03255666103850305 0.059643713890407284 0.017204748352888783 0 0 0
156 1 0.005 2500 0.038305892122226404 0.05630057475452874 0.017733564372558193 0 0 0
621 1 0.005 2500 0.04238268176364443 0.059136373075894984 0.018309455723157914 0 0 0
1935 1 0.005 2500 0.04961112635259597 0.05965126359186362 0.017449235178895794 0 0 0
384 1 0.005 2500 0.05912380666112707 0.056854541927402955 0.019183124208667565 0 0 0
567 1 0.005 2500 0.07370123177510547 0.05908613784402163 0.018859534404939884 0 0 0
587 1 0.005 2500 0.09322605827328653 0.05781169934317912 0.018582891075944193 0 0 0
1582 1 0.005 2500 0.0024998478761655094 0.0626449236951155 0.019317845108387625 0 0 0
986 1 0.005 2500 0.006823753765537527 0.06097453706333289 0.017444025445039306 0 0 0
659 1 0.005 2500 0.011924666898935104 0.06147674074244557 0.019972456298824763 0 0 0
208 1 0.005 2500 0.017196823315102985 0.06217850495968546 0.01794703851528439 0 0 0
514 1 0.005 2500 0.02189845667481455 0.06338080115255869 0.016072582518356922 0 0 0
756 1 0.005 2500 0.026914580725173897 0.06187687831755895 0.01903604848495399 0 0 0
1430 1 0.005 2500 0.038543847376289825 0.06232242001460573 0.017688390557863157 0 0 0
576 1 0.005 2500 0.05585588826958734 0.06232521919835043 0.017791315408857023 0 0 0
637 1 0.005 2500 0.06289793443786976 0.062238435692863886 0.01808423849953624 0 0 0
515 1 0.005 2500 0.06939463918858044 0.06323269815795765 0.017692713874085515 0 0 0
1464 1 0.005 2500 0.0751442173597479 0.0637934602718759 0.017990248850623072 0 0 0
538 1 0.005 2500 0.07991238861486201 0.061569988938058276 0.018308664893878033 0 0 0
311 1 0.005 2500 0.08652874781412556 0.06207331256023489 0.01794219498823173 0 0 0
790 1 0.005 2500 0.09633070269111996 0.06247363804386859 0.01880325103665775 0 0 0
2056 1 0.005 2500 0.002499439727587133 0.06676579780370849 0.016486498011741214 0 0 0
2034 1 0.005 2500 0.006662224421703503 0.06570769351894938 0.019044711759484186 0 0 0
123 1 0.005 2500 0.011124222047036383 0.06784225804765416 0.019769504595383375 0 0 0
1098 1 0.005 2500 0.015389227821745406 0.06659633483433959 0.016459807537707483 0 0 0
1136 1 0.005 2500 0.020012616203797667 0.06585235238300306 0.019987661112029667 0 0 0
1884 1 0.005 2500 0.02467242289461193 0.0669988982690883 0.018587059065157036 0 0 0
1313 1 0.005 2500 0.03089065603840118 0.06442482704884507 0.017324862152216805 0 0 0
2180 1 0.005 2500 0.034838635335084994 0.06725742503652411 0.016146689520214853 0 0 0
1767 1 0.005 2500 0.043063967985340304 0.0647331743150133 0.016407521183859887 0 0 0
1531 1 0.005 2500 0.04793776653989454 0.06412337999879432 0.01955335665432551 0 0 0
1344 1 0.005 2500 0.05158319075027729 0.06432628963100134 0.016137969941783344 0 0 0
566 1 0.005 2500 0.05934821360556729 0.06543739200693545 0.019554530900565564 0 0 0
121 1 0.005 2500 0.06555959059196383 0.06643695930669107 0.01755833679954485 0 0 0
928 1 0.005 2500 0.07201037695659925 0.06765690903373098 0.017493704429681362 0 0 0
356 1 0.005 2500 0.0791451795004994 0.0667628001093283 0.017575034718406213 0 0 0
273 1 0.005 2500 0.0873140682061652 0.06760931851506337 0.019541657513545113 0 0 0
79 1 0.005 2500 0.09103048225144647 0.06439862074454528 0.01860724268500004 0 0 0
665 1 0.005 2500 0.09493221399868636 0.06665195291721393 0.016440392254497845 0 0 0
1084 1 0.005 2500 0.006431803163777777 0.0700401949445339 0.016560828223963896 0 0 0
1040 1 0.005 2500 0.019564034728726264 0.07064081675185443 0.018620891773934417 0 0 0
476 1 0.005 2500 0.027415583059740987 0.07029995008329402 0.016024364318332637 0 0 0
618 1 0.005 2500 0.03297765713969746 0.07133844448052495 0.018815281522625255 0 0 0
926 1 0.005 2500 0.03980399191994752 0.06989606380252684 0.016844739039479355 0 0 0
1042 1 0.005 2500 0.046142708253606876 0.07196778488609795 0.01847202955146803 0 0 0
1069 1 0.005 2500 0.04977555068295153 0.06854588457580252 0.01811754602913553 0 0 0
414 1 0.005 2500 0.05433406992345738 0.06983977653131446 0.016468821208455532 0 0 0
1046 1 0.005 2500 0.061020317908438634 0.06938937260090944 0.0169899100951567 0 0 0
1896 1 0.005 2500 0.06808100763769183 0.07070459694901493 0.01691332592120114 0 0 0
191 1 0.005 2500 0.07513080672365144 0.07152230850977234 0.016931523942182145 0 0 0
1399 1 0.005 2500 0.07945919039595782 0.07139461924190446 0.019430578462134442 0 0 0
248 1 0.005 2500 0.08323605583263807 0.06951535211925014 0.016746795611307486 0 0 0
1107 1 0.005 2500 0.09202088620574361 0.06929591290043009 0.01952734191827746 0 0 0
599 1 0.005 2500 0.09750046960601523 0.07125560345973996 0.018210987919534218 0 0 0
1275 1 0.005 2500 0.0024994577727250663 0.07278590742939356 0.018272563385275605 0 0 0
602 1 0.005 2500 0.006714343186352026 0.07527743630673737 0.017263035589851202 0 0 0
842 1 0.005 2500 0.013560649300258583 0.07233729218074265 0.01742672455805495 0 0 0
2128 1 0.005 2500 0.018656569176200444 0.0755002897749712 0.01936663701898013 0 0 0
2036 1 0.005 2500 0.024087482111707418 0.07276033020652468 0.01882721453303394 0 0 0
470 1 0.005 2500 0.030171397171806447 0.0747521990421987 0.016442473591353077 0 0 0
1437 1 0.005 2500 0.04168600258738378 0.07423302824694768 0.018469416397125474 0 0 0
1001 1 0.005 2500 0.058110582763123676 0.07344669965620411 0.01673576074467897 0 0 0
1279 1 0.005 2500 0.0633016995609948 0.07380268234440496 0.01642830279992922 0 0 0
677 1 0.005 2500 0.07648754143108481 0.07540271529721966 0.019776950905341227 0 0 0
463 1 0.005 2500 0.0882188733060523 0.072489420577203 0.0189415750421097 0 0 0
465 1 0.005 2500 0.09258380589250587 0.07511889337846882 0.018943493205584024 0 0 0
1387 1 0.005 2500 0.0025090469882976443 0.07776407950010195 0.018735811522233074 0 0 0
150 1 0.005 2500 0.011254780773574998 0.07649967551025916 0.018961195570477606 0 0 0
475 1 0.005 2500 0.02774589262421395 0.0785507290980835 0.018816759680544987 0 0 0
110 1 0.005 2500 0.032732132199957374 0.07822480739954407 0.01896626230567914 0 0 0
82 1 0.005 2500 0.03719269472752419 0.0760754965194281 0.019654778964658785 0 0 0
210 1 0.005 2500 0.04119833383294254 0.079195198436056 0.017419064362290133 0 0 0
846 1 0.005 2500 0.04572114266535514 0.07708271040515786 0.01770157057354548 0 0 0
469 1 0.005 2500 0.050169280016464986 0.07933885673232614 0.017363398154430318 0 0 0
415 1 0.005 2500 0.05476240858319864 0.07643206552588719 0.01894335788466712 0 0 0
1192 1 0.005 2500 0.059176727826309866 0.07900012405116166 0.01838707160745311 0 0 0
1026 1 0.005 2500 0.0672962782488868 0.07672969354477259 0.01751717701045173 0 0 0
651 1 0.005 2500 0.0722751404495129 0.07829204865498895 0.01916089246149182 0 0 0
479 1 0.005 2500 0.08375163898607783 0.07919936181593264 0.017055110062969427 0 0 0
1540 1 0.005 2500 0.08833684868674456 0.07723112131230817 0.017362099350513555 0 0 0
809 1 0.005 2500 0.09750040515586372 0.07621637088082947 0.018834218083729443 0 0 0
200 1 0.005 2500 0.006735884184826596 0.08027704304920644 0.017247940838727934 0 0 0
706 1 0.005 2500 0.01115622983363437 0.08149207663285847 0.01929315212964547 0 0 0
160 1 0.005 2500 0.015270315823215998 0.08164824646705672 0.01640395223683456 0 0 0
1035 1 0.005 2500 0.019673223751968356 0.08034863057079367 0.018383491421964788 0 0 0
822 1 0.005 2500 0.024326051975345365 0.08219468332135572 0.018969404533316914 0 0 0
980 1 0.005 2500 0.030456696418490265 0.08228774923381044 0.01689923875653914 0 0 0
762 1 0.005 2500 0.03521074492833806 0.08264213624448533 0.019139868791614615 0 0 0
27 1 0.005 2500 0.04323039602846901 0.08356911787371711 0.018733349219319018 0 0 0
96 1 0.005 2500 0.048173882344292554 0.08389394660537326 0.01787657422913061 0 0 0
2195 1 0.005 2500 0.05487235125583841 0.08089397323006 0.016691434488689674 0 0 0
400 1 0.005 2500 0.060091136423945604 0.08373230863872387 0.017057949798748178 0 0 0
1525 1 0.005 2500 0.06995474531357765 0.08290677058062232 0.017507932754157973 0 0 0
963 1 0.005 2500 0.07626658382557193 0.08136107720446001 0.018643447474017857 0 0 0
429 1 0.005 2500 0.08763809799542677 0.08207770637067055 0.018370175685718047 0 0 0
952 1 0.005 2500 0.09248184125650005 0.08329612881859762 0.018597331071069954 0 0 0
339 1 0.005 2500 0.09744409708490279 0.08397944938298436 0.016704158938204577 0 0 0
1829 1 0.005 2500 0.0057271644089733 0.0853491987640053 0.01775007332146096 0 0 0
1493 1 0.005 2500 0.010649753915683447 0.08602452692891394 0.017195945771392634 0 0 0
959 1 0.005 2500 0.01665234505451506 0.08645262644397939 0.016411443583193394 0 0 0
365 1 0.005 2500 0.02656524314912208 0.08785361452988752 0.017766307956307147 0 0 0
240 1 0.005 2500 0.032209143556170744 0.08663989282204894 0.019179359980168446 0 0 0
255 1 0.005 2500 0.03886347747207039 0.08540363041246901 0.017132775557951428 0 0 0
335 1 0.005 2500 0.045658683546753606 0.08784788612655489 0.019618375394980684 0 0 0
15 1 0.005 2500 0.05580796683572355 0.08508315941856866 0.019254733724057897 0 0 0
623 1 0.005 2500 0.06494533663089139 0.0841099416269158 0.01819270518132931 0 0 0
1334 1 0.005 2500 0.07552733853020016 0.08582219335572092 0.01651185388766643 0 0 0
1523 1 0.005 2500 0.08223699084900317 0.08787837176084869 0.017020360073563806 0 0 0
485 1 0.005 2500 0.08712315989447889 0.08699140206973753 0.017605111877581722 0 0 0
1854 1 0.005 2500 0.0024993379286078537 0.09150793988859282 0.019496195289979142 0 0 0
1695 1 0.005 2500 0.007097875241636117 0.09003449277977552 0.016671771447090738 0 0 0
219 1 0.005 2500 0.011340124244863454 0.09019985930789585 0.019858056803762073 0 0 0
495 1 0.005 2500 0.016568690026357618 0.09014142135955555 0.0197839917831188 0 0 0
1559 1 0.005 2500 0.020473767646461773 0.08982069202628591 0.016514641908966836 0 0 0
802 1 0.005 2500 0.030505352164362374 0.09086126329342212 0.017112337193805078 0 0 0
667 1 0.005 2500 0.04200622322006416 0.08917245909896929 0.016176168378237165 0 0 0
512 1 0.005 2500 0.050420272416243216 0.08840180999657173 0.01819945229725913 0 0 0
285 1 0.005 2500 0.05982507841622546 0.08804126108958804 0.019579357475985007 0 0 0
906 1 0.005 2500 0.06381337875988657 0.08888973615192969 0.016686975047044528 0 0 0
697 1 0.005 2500 0.06787502278801984 0.0880600375405618 0.019501901462676025 0 0 0
298 1 0.005 2500 0.07458016216399037 0.09031515693565298 0.01848881200943022 0 0 0
542 1 0.005 2500 0.0922795871852925 0.0895125918926129 0.017590568982891998 0 0 0
1260 1 0.005 2500 0.09750021446021805 0.08839685924191203 0.019758842588542085 0 0 0
1291 1 0.005 2500 0.006457968798328417 0.09449716895232915 0.018874103206027483 0 0 0
501 1 0.005 2500 0.011321120933480464 0.09519884896616748 0.019796718117063846 0 0 0
435 1 0.005 2500 0.017230566700416595 0.09373069869245225 0.016368682518808016 0 0 0
209 1 0.005 2500 0.024896857038098463 0.09226221877237449 0.016099821919168342 0 0 0
26 1 0.005 2500 0.03718745583175863 0.09277648720330979 0.01686395050530607 0 0 0
933 1 0.005 2500 0.04109325581643612 0.09232110512212892 0.019951212442887382 0 0 0
1721 1 0.005 2500 0.04551478244905131 0.09242807753190091 0.01762066709623892 0 0 0
343 1 0.005 2500 0.054377081603899785 0.09283098240646459 0.017335689486787556 0 0 0
234 1 0.005 2500 0.061130720064977905 0.09295636249841126 0.01844182519280705 0 0 0
1045 1 0.005 2500 0.0694900815192475 0.09323109638655606 0.016898722821430914 0 0 0
1059 1 0.005 2500 0.07877320288190015 0.09301340671251282 0.017504885606843875 0 0 0
617 1 0.005 2500 0.08772255510110279 0.09304696028159791 0.019989123488303152 0 0 0
818 1 0.005 2500 0.09577671057100064 0.093076377463192 0.01733355074087119 0 0 0
1597 1 0.005 2500 0.002526694214459861 0.09746898869816975 0.017491533549330536 0 0 0
1450 1 0.005 2500 0.01395127166412039 0.09750090178197918 0.01622246658113425 0 0 0
109 1 0.005 2500 0.020060558344386182 0.09750052444766324 0.018034135161460962 0 0 0
198 1 0.005 2500 0.02734474191873062 0.0975004709855875 0.0198759098678521 0 0 0
1583 1 0.005 2500 0.03358201915378026 0.0974498945587374 0.018570701525989882 0 0 0
257 1 0.005 2500 0.03999450689001983 0.09750017374643948 0.019445067285628313 0 0 0
541 1 0.005 2500 0.04669230941553695 0.09750065981069421 0.01690789286394262 0 0 0
2101 1 0.005 2500 0.051626378548374104 0.09689431295745694 0.016375203937089418 0 0 0
371 1 0.005 2500 0.056907284557826975 0.09725941305283273 0.016587164150912975 0 0 0
444 1 0.005 2500 0.06198904901110269 0.09750039825439814 0.016541986510872315 0 0 0
923 1 0.005 2500 0.06697771018826787 0.09750017738836284 0.016218270165771233 0 0 0
558 1 0.005 2500 0.07197628484018347 0.09750073669492038 0.016137687071808595 0 0 0
1545 1 0.005 2500 0.08770438611325498 0.09750031036338301 0.01771691639324325 0 0 0
1068 1 0.005 2500 0.09254671299482882 0.09750048437363024 0.01896071919617463 0 0 0
1509 1 0.005 2500 0.0975008236530169 0.09720618016599139 0.019562544190192713 0 0 0
230 1 0.005 2500 0.01660374344424278 0.009219275499420688 0.02012299441734483 0 0 0
143 1 0.005 2500 0.005176903107076114 0.013466536949844475 0.022087590710348402 0 0 0
360 1 0.005 2500 0.013445494406955256 0.01737312469258911 0.022037684522782312 0 0 0
633 1 0.005 2500 0.003929488159114204 0.020987427865311856 0.021957404074699344 0 0 0
452 1 0.005 2500 0.010227456887285491 0.022373842762295187 0.022418353744429954 0 0 0
1323 1 0.005 2500 0.015939944765438332 0.022394044637416628 0.020549293178855503 0 0 0
159 1 0.005 2500 0.020713551991269556 0.023895138632275416 0.021586979033141912 0 0 0
884 1 0.005 2500 0.030112520869092527 0.02286046647380406 0.020100918720684206 0 0 0
128 1 0.005 2500 0.04880861694911152 0.023058618584409517 0.020146435640854343 0 0 0
1167 1 0.005 2500 0.002911337236444446 0.027878874038947444 0.02359234472965671 0 0 0
979 1 0.005 2500 0.006708003971716478 0.027634084756463194 0.020348204960824123 0 0 0
1228 1 0.005 2500 0.012851647699209075 0.026316759577588812 0.020816636263749147 0 0 0
1421 1 0.005 2500 0.026335857932586353 0.026899514865599692 0.020695404443855273 0 0 0
135 1 0.005 2500 0.03410414022183125 0.024665236239385508 0.022510967762824644 0 0 0
229 1 0.005 2500 0.007184023650212766 0.03189089643591529 0.02292685025788171 0 0 0
13 1 0.005 2500 0.01574842021820162 0.030069447501406228 0.02240530517282445 0 0 0
1354 1 0.005 2500 0.020160007783354562 0.031031288883819116 0.02025803758008108 0 0 0
771 1 0.005 2500 0.022153598637121248 0.028134478093262597 0.023812152949816156 0 0 0
482 1 0.005 2500 0.026109842518862465 0.031151105731234228 0.02331630418879555 0 0 0
577 1 0.005 2500 0.030556523862447598 0.029516551256348597 0.02011808836542567 0 0 0
683 1 0.005 2500 0.03936266433948279 0.028947704192331638 0.02085450005766209 0 0 0
272 1 0.005 2500 0.050630838764437004 0.029727531441107506 0.020374009721295435 0 0 0
1047 1 0.005 2500 0.002499657451374129 0.03427175294962324 0.023671604374998125 0 0 0
1494 1 0.005 2500 0.01180588677094741 0.03334733300633068 0.02169618099987459 0 0 0
680 1 0.005 2500 0.030612796410339913 0.03376445414806434 0.022753971014899673 0 0 0
380 1 0.005 2500 0.0347373053131855 0.032246871440002545 0.020370566036742952 0 0 0
297 1 0.005 2500 0.03865304270643546 0.034984300484872694 0.021843603917420035 0 0 0
1790 1 0.005 2500 0.04236008100903867 0.03202133459017646 0.02341723281222303 0 0 0
829 1 0.005 2500 0.04897685065890289 0.03442562056470731 0.02190742258836983 0 0 0
1364 1 0.005 2500 0.007242336029361109 0.036801171562810535 0.023875281924211705 0 0 0
786 1 0.005 2500 0.01700408939535268 0.037371149671182984 0.023223872468212167 0 0 0
718 1 0.005 2500 0.022082118424349786 0.03725392104729099 0.022369599939101467 0 0 0
620 1 0.005 2500 0.026886833268615844 0.03695491659503948 0.02371981168267869 0 0 0
1031 1 0.005 2500 0.034206233418955706 0.03917513591748824 0.022531142104961103 0 0 0
801 1 0.005 2500 0.03852825304278225 0.03965508384956064 0.020064536546268733 0 0 0
148 1 0.005 2500 0.04402244396624218 0.03868927682350026 0.022666221782797782 0 0 0
417 1 0.005 2500 0.05254006365642948 0.0379030381093052 0.021449146530097257 0 0 0
166 1 0.005 2500 0.0071365985389953415 0.043008231402157905 0.023263442692904174 0 0 0
392 1 0.005 2500 0.012756388295571916 0.04174532019629952 0.020901954964407103 0 0 0
214 1 0.005 2500 0.028438143311643068 0.0425602817532091 0.021094929748771425 0 0 0
421 1 0.005 2500 0.03630596459827705 0.043850352485793075 0.021631924035699416 0 0 0
136 1 0.005 2500 0.04077207443250146 0.04236816258316283 0.02361404688415912 0 0 0
174 1 0.005 2500 0.049831510799941414 0.04175372532618263 0.023135511397412666 0 0 0
228 1 0.005 2500 0.07311611199065396 0.04272222316921026 0.021669472633697714 0 0 0
140 1 0.005 2500 0.0024995090114533335 0.04412646846287556 0.020957105413491217 0 0 0
48 1 0.005 2500 0.0104321747760556 0.04616269635467394 0.0212170404043561 0 0 0
434 1 0.005 2500 0.015519469846659553 0.045910789472891726 0.02079135181207576 0 0 0
147 1 0.005 2500 0.021394364049420807 0.04457630153866933 0.0219363727228826 0 0 0
616 1 0.005 2500 0.026301793845631843 0.0465934114565034 0.023136183322015683 0 0 0
1014 1 0.005 2500 0.031846749661789395 0.0459786321970242 0.022394407164024712 0 0 0
685 1 0.005 2500 0.04382126619591031 0.04582392922218498 0.021675547036355738 0 0 0
676 1 0.005 2500 0.04863202775239273 0.04671074779712008 0.022708541707518123 0 0 0
341 1 0.005 2500 0.053451411249742634 0.04547331737266355 0.022218820616001625 0 0 0
11 1 0.005 2500 0.06213763646196478 0.04495187900464851 0.023054365461809022 0 0 0
712 1 0.005 2500 0.06617603671199258 0.04635557160849653 0.020462482665302116 0 0 0
51 1 0.005 2500 0.07825880860020122 0.047658101921804946 0.02283754086439505 0 0 0
139 1 0.005 2500 0.0024997898174511928 0.048659120993462646 0.023065898982171873 0 0 0
282 1 0.005 2500 0.007420080089651785 0.049426556227358226 0.023513578463005887 0 0 0
1118 1 0.005 2500 0.011304798938496284 0.05151179138087394 0.021141995464518202 0 0 0
367 1 0.005 2500 0.019097763902685472 0.04898801734303846 0.022441399912739548 0 0 0
653 1 0.005 2500 0.024806486414290844 0.051540179701956595 0.023752399841572184 0 0 0
326 1 0.005 2500 0.030628024406203935 0.05082191938151148 0.02216279252309471 0 0 0
264 1 0.005 2500 0.03555581182809297 0.05162363292872699 0.021892823735580852 0 0 0
412 1 0.005 2500 0.04016631774317278 0.04961506435948079 0.021180203147575214 0 0 0
20 1 0.005 2500 0.04602188266402257 0.05042485629202331 0.02051252621118016 0 0 0
199 1 0.005 2500 0.051293865445797455 0.050784988806996466 0.021562909366930224 0 0 0
133 1 0.005 2500 0.05625443163323538 0.05046820772482401 0.022100854936601806 0 0 0
81 1 0.005 2500 0.06372297115917658 0.05070758798170273 0.020661355785271073 0 0 0
797 1 0.005 2500 0.06886841313107939 0.05018498743489535 0.02221864212833663 0 0 0
732 1 0.005 2500 0.07328056572132813 0.04915663054302551 0.02010369777657248 0 0 0
1483 1 0.005 2500 0.0024999312918999885 0.0531492732649959 0.020745062287471475 0 0 0
716 1 0.005 2500 0.007652142226081754 0.05469179710203478 0.022423555447244104 0 0 0
747 1 0.005 2500 0.013935361050376615 0.055759048131531846 0.02132584390929405 0 0 0
775 1 0.005 2500 0.027714611164739444 0.05552580455221929 0.022944013183255292 0 0 0
1612 1 0.005 2500 0.03976081845199856 0.054500147006403966 0.022164911444107177 0 0 0
276 1 0.005 2500 0.044838523346672994 0.055186860118659864 0.021472518794570204 0 0 0
601 1 0.005 2500 0.055209685395220386 0.05535372031337105 0.021907941005008164 0 0 0
188 1 0.005 2500 0.060160510619843954 0.053518653742677426 0.02275993899278888 0 0 0
217 1 0.005 2500 0.065576616079289 0.0543577672584019 0.02353139628223349 0 0 0
1992 1 0.005 2500 0.07172463603824675 0.05500787443029342 0.022572774892388986 0 0 0
496 1 0.005 2500 0.07983547558922245 0.05365028244079562 0.021394405075171062 0 0 0
1859 1 0.005 2500 0.002744915606240903 0.05865338104500513 0.02322698610454595 0 0 0
890 1 0.005 2500 0.007532788212964638 0.05968562237194628 0.022221914736776247 0 0 0
867 1 0.005 2500 0.019675141575803527 0.056648490381522164 0.02238364810445347 0 0 0
539 1 0.005 2500 0.03058784774063281 0.059461127005068455 0.021826241657495377 0 0 0
158 1 0.005 2500 0.034124101733024 0.0561979232506682 0.020470534522733865 0 0 0
274 1 0.005 2500 0.03987536904898372 0.05951357289665883 0.02261822204532827 0 0 0
593 1 0.005 2500 0.04742765001939389 0.05943788782204455 0.021941209150138797 0 0 0
1096 1 0.005 2500 0.053058580503526895 0.05978813248066643 0.021067674911363254 0 0 0
776 1 0.005 2500 0.06399663418772561 0.05799097466983895 0.020481445379122377 0 0 0
442 1 0.005 2500 0.06889597275026503 0.05895622503598689 0.020233860701049662 0 0 0
353 1 0.005 2500 0.07248956918584012 0.05982920701307002 0.02365297213629732 0 0 0
268 1 0.005 2500 0.07789050486220409 0.05825571115648717 0.021458935791467838 0 0 0
2165 1 0.005 2500 0.08710400623001707 0.05702221668489549 0.020104506276569803 0 0 0
691 1 0.005 2500 0.016098441748177567 0.0601417633554364 0.02237923273335901 0 0 0
720 1 0.005 2500 0.021433291745807978 0.061016014280589254 0.020452805843633858 0 0 0
518 1 0.005 2500 0.025981582742569984 0.0601640039216498 0.02363920945526579 0 0 0
181 1 0.005 2500 0.03480085578922008 0.06201913887651862 0.020988575169083933 0 0 0
731 1 0.005 2500 0.043625078670637536 0.0626684733499545 0.02162212845691365 0 0 0
134 1 0.005 2500 0.055289087117541984 0.0633514324460628 0.023800813234563015 0 0 0
584 1 0.005 2500 0.05930036807039915 0.06103375890691125 0.02192090034115386 0 0 0
172 1 0.005 2500 0.06631024645944074 0.06313693932428778 0.02162623765678872 0 0 0
908 1 0.005 2500 0.09034314457648256 0.06049889436401623 0.021659459960848757 0 0 0
930 1 0.005 2500 0.002707101077465046 0.06765742575925628 0.021401073575792098 0 0 0
1244 1 0.005 2500 0.007404500751978087 0.06442120189707877 0.023818515385909306 0 0 0
785 1 0.005 2500 0.015212983747981553 0.06541662855595441 0.021315192109801068 0 0 0
1310 1 0.005 2500 0.02398976481118804 0.06470141903077796 0.02297441058497751 0 0 0
833 1 0.005 2500 0.029512676899600812 0.06428728305871648 0.022562469961632588 0 0 0
606 1 0.005 2500 0.03358841001902061 0.06686944435621976 0.020972090154148786 0 0 0
309 1 0.005 2500 0.03853850768891809 0.0665578450464359 0.020344501086998767 0 0 0
1063 1 0.005 2500 0.049964656727242214 0.06721955810990461 0.022934160806972234 0 0 0
793 1 0.005 2500 0.053951492636774734 0.06636349520405678 0.02004137279304819 0 0 0
1669 1 0.005 2500 0.07197345146302266 0.06444433905292678 0.021800574705266258 0 0 0
473 1 0.005 2500 0.07853991327353387 0.06451236743281331 0.022110441467646878 0 0 0
1534 1 0.005 2500 0.08308787955206234 0.06499565747350665 0.02009063295039026 0 0 0
2088 1 0.005 2500 0.09381809534232265 0.06422721225413297 0.02275416850171857 0 0 0
243 1 0.005 2500 0.09750019463106534 0.06693664781127191 0.020729403005130757 0 0 0
1010 1 0.005 2500 0.016928434240954585 0.06987219155476164 0.02279932467818826 0 0 0
38 1 0.005 2500 0.02537313927088118 0.0697902080112094 0.023818637499637006 0 0 0
1888 1 0.005 2500 0.029009092092828603 0.06882503637941287 0.020526517298437 0 0 0
655 1 0.005 2500 0.038585434006719016 0.07159638408562718 0.02138510294683761 0 0 0
843 1 0.005 2500 0.043265540917127636 0.06818354151975517 0.02002009503357681 0 0 0
826 1 0.005 2500 0.05742397648688024 0.07008866918120303 0.020391282605688607 0 0 0
1071 1 0.005 2500 0.06300669212478192 0.06827192973361645 0.02144550206487556 0 0 0
649 1 0.005 2500 0.06862276808580371 0.0680966958286483 0.021144222360967777 0 0 0
1082 1 0.005 2500 0.075686867651473 0.06840291271686313 0.020798836722616336 0 0 0
1303 1 0.005 2500 0.08000965218140288 0.06899026629625685 0.02377948939707625 0 0 0
480 1 0.005 2500 0.084048490525755 0.07085236259715268 0.021495136024780145 0 0 0
114 1 0.005 2500 0.08900701983833255 0.07032840443975374 0.023380756679459384 0 0 0
1246 1 0.005 2500 0.002885989852826206 0.07230522901763736 0.02323361402122089 0 0 0
329 1 0.005 2500 0.006806938621958356 0.07576867828485634 0.023453769542053728 0 0 0
2178 1 0.005 2500 0.008566997051329631 0.07205543320136085 0.020607080276771925 0 0 0
516 1 0.005 2500 0.014578979406582556 0.07420331135016621 0.021951141990568378 0 0 0
1420 1 0.005 2500 0.021260928756628036 0.07249516307074778 0.02294240989914663 0 0 0
672 1 0.005 2500 0.029657939898990498 0.07473095885830303 0.021415177795749044 0 0 0
57 1 0.005 2500 0.03448755175065162 0.07381295052579541 0.023198471972684688 0 0 0
376 1 0.005 2500 0.044401441396506244 0.07406373583170654 0.022663463493675706 0 0 0
1349 1 0.005 2500 0.05224403943461156 0.07232251715841805 0.02027129404172753 0 0 0
1327 1 0.005 2500 0.060947609099645375 0.07378098326718169 0.020839059649707073 0 0 0
92 1 0.005 2500 0.0665523722153078 0.0731928055930027 0.020971445442541908 0 0 0
165 1 0.005 2500 0.0714387953988092 0.07248175217897687 0.020162972587083144 0 0 0
563 1 0.005 2500 0.08207351088014869 0.07560381730286785 0.020096255729832202 0 0 0
1467 1 0.005 2500 0.0863028017863143 0.07514255056932091 0.02272279966604793 0 0 0
1867 1 0.005 2500 0.002499757234258251 0.07829478318998871 0.023706937836153897 0 0 0
1149 1 0.005 2500 0.011192674113521237 0.07857048208818597 0.02351110639286244 0 0 0
267 1 0.005 2500 0.015264692891844877 0.07897600917492499 0.020629112728665317 0 0 0
522 1 0.005 2500 0.019297161658233457 0.07824946032598165 0.023492858861236334 0 0 0
1314 1 0.005 2500 0.02315562900333662 0.0774027553066453 0.020429387988747622 0 0 0
768 1 0.005 2500 0.03512933306573079 0.07878133065845781 0.023317760259841103 0 0 0
405 1 0.005 2500 0.0399858398111105 0.07611399743165143 0.02380079818322882 0 0 0
1255 1 0.005 2500 0.04383155153071999 0.07907948811335976 0.021877254627863878 0 0 0
707 1 0.005 2500 0.050585054460732866 0.07682749789122469 0.021666370249304207 0 0 0
145 1 0.005 2500 0.05722848196038514 0.07606682697906984 0.0232767808196224 0 0 0
1435 1 0.005 2500 0.06368985007282692 0.0785171169483709 0.020481960409722267 0 0 0
1115 1 0.005 2500 0.0683596728379259 0.07844581332124517 0.02226537376517544 0 0 0
204 1 0.005 2500 0.07551662670259783 0.07907604492116761 0.023026394412238405 0 0 0
740 1 0.005 2500 0.08936721673857946 0.0790103090525504 0.021919465323225855 0 0 0
458 1 0.005 2500 0.09428085976181312 0.07933074387545377 0.02105414805082973 0 0 0
1764 1 0.005 2500 0.0024995084491964237 0.08244527607594071 0.020490854030582907 0 0 0
1370 1 0.005 2500 0.006813068952620523 0.08061727157412635 0.022235550539380044 0 0 0
813 1 0.005 2500 0.01028597296829437 0.0839649690262169 0.023549469301830862 0 0 0
56 1 0.005 2500 0.016159333123989462 0.08260053228553536 0.0239547554545095 0 0 0
355 1 0.005 2500 0.025435676283451013 0.08053692871211365 0.023586952382194652 0 0 0
423 1 0.005 2500 0.03035088067912747 0.0805832614787128 0.022674853434846945 0 0 0
782 1 0.005 2500 0.039247189271814836 0.08105823627161765 0.02162837644853482 0 0 0
1055 1 0.005 2500 0.052420202374901574 0.08186942678002211 0.02104035334073951 0 0 0
74 1 0.005 2500 0.05720488253654295 0.08129127801771258 0.02236917310762589 0 0 0
944 1 0.005 2500 0.061550444677205746 0.08370571035120226 0.02184003561090495 0 0 0
644 1 0.005 2500 0.06669693801075831 0.08313352994021614 0.022772215607968552 0 0 0
31 1 0.005 2500 0.07157466893698351 0.08214249309493112 0.023262869346510083 0 0 0
854 1 0.005 2500 0.08065609603001887 0.08034513531483446 0.02080999547471836 0 0 0
1142 1 0.005 2500 0.08446079907860758 0.08335777204706284 0.022011567792582353 0 0 0
117 1 0.005 2500 0.09293311884091604 0.08336088900165411 0.023687987334469213 0 0 0
315 1 0.005 2500 0.09750035811145936 0.08378917879853946 0.021699865036179013 0 0 0
887 1 0.005 2500 0.002499327306714054 0.08720059481803283 0.02203251801243786 0 0 0
1456 1 0.005 2500 0.007467760909737506 0.08770545749035899 0.021800702945885615 0 0 0
347 1 0.005 2500 0.014136039245353147 0.08588762699118802 0.020776796561044246 0 0 0
478 1 0.005 2500 0.019014331647551157 0.08482633621188908 0.020506180161123506 0 0 0
987 1 0.005 2500 0.023362529583807613 0.08504327899090369 0.02296338636517508 0 0 0
364 1 0.005 2500 0.02816665898234607 0.08494613898507299 0.021583847426794266 0 0 0
120 1 0.005 2500 0.03361052447219163 0.08426167649017272 0.023590712819898187 0 0 0
557 1 0.005 2500 0.040377043208494556 0.08590479289639241 0.022109628870537457 0 0 0
724 1 0.005 2500 0.04489453962442281 0.0841987797258574 0.023404964972580843 0 0 0
1554 1 0.005 2500 0.04952904994950318 0.08573731692478666 0.02233434487030405 0 0 0
185 1 0.005 2500 0.05762893011629544 0.08611352283076107 0.023795229600379095 0 0 0
488 1 0.005 2500 0.07240977334679843 0.08615883754008283 0.020404965395049598 0 0 0
1536 1 0.005 2500 0.07619962509034689 0.0840267478960376 0.022872669231329003 0 0 0
551 1 0.005 2500 0.0784283922145975 0.08765408713326578 0.020251152410592534 0 0 0
1121 1 0.005 2500 0.09032920293448465 0.0869895070633388 0.021441110583467524 0 0 0
404 1 0.005 2500 0.014027988012696179 0.09168449168091439 0.02380317639873127 0 0 0
1272 1 0.005 2500 0.022959323119309462 0.08955262643381656 0.02084342254532423 0 0 0
702 1 0.005 2500 0.03202818136436452 0.08921303919902286 0.023462090311629717 0 0 0
1204 1 0.005 2500 0.03699005451976133 0.08902132995338055 0.020158036362013645 0 0 0
1239 1 0.005 2500 0.04407878660279683 0.09052205117139712 0.023535306091038873 0 0 0
453 1 0.005 2500 0.04870387457649206 0.09181782107035069 0.021421443290276152 0 0 0
878 1 0.005 2500 0.05364750735829665 0.08865279560108368 0.02200902247076782 0 0 0
611 1 0.005 2500 0.057414226339676126 0.09191665274785861 0.02161937579817663 0 0 0
246 1 0.005 2500 0.0638774056712613 0.08850034574547719 0.022471308931778185 0 0 0
626 1 0.005 2500 0.07082413290829123 0.09172056848125644 0.02147390617023499 0 0 0
929 1 0.005 2500 0.07496877157530336 0.08905283592365085 0.02357856779789581 0 0 0
154 1 0.005 2500 0.08433780625798173 0.08833302400702808 0.021534313990031306 0 0 0
379 1 0.005 2500 0.09435708748165592 0.08902130733964163 0.023596481494919573 0 0 0
490 1 0.005 2500 0.008262351141919214 0.09247418711950102 0.02307470655762518 0 0 0
772 1 0.005 2500 0.019079888081341725 0.09339990337361732 0.022624949725385136 0 0 0
696 1 0.005 2500 0.023363543436507237 0.09450559371791788 0.02029587711596177 0 0 0
80 1 0.005 2500 0.028875274714569736 0.09297211859366786 0.021340388115404146 0 0 0
84 1 0.005 2500 0.03380958101173011 0.09286310601523648 0.020547371454433885 0 0 0
23 1 0.005 2500 0.037737129575792894 0.09270330618663661 0.023636921450867585 0 0 0
505 1 0.005 2500 0.04443922236270663 0.09588504530362431 0.0210677997555305 0 0 0
688 1 0.005 2500 0.052998414055039 0.09342510313177566 0.023412604539429914 0 0 0
1201 1 0.005 2500 0.06196220726799474 0.09303002009784306 0.023371426992467505 0 0 0
1200 1 0.005 2500 0.06579448238852695 0.09255270410095158 0.020196160405519154 0 0 0
831 1 0.005 2500 0.07696672182082219 0.0934075169292587 0.022149735066805985 0 0 0
19 1 0.005 2500 0.0827534892173061 0.09296700303732452 0.020528402232470953 0 0 0
1190 1 0.005 2500 0.09257845395825175 0.09301816538193255 0.021175759922707846 0 0 0
1594 1 0.005 2500 0.09750081101754558 0.0928504906393884 0.022031296892296586 0 0 0
607 1 0.005 2500 0.0024997739684296956 0.09750016834784075 0.02249035291785466 0 0 0
916 1 0.005 2500 0.007493584554513071 0.09750071391922464 0.022733726061873162 0 0 0
586 1 0.005 2500 0.015921088734588328 0.09697051617974868 0.020786638965279183 0 0 0
75 1 0.005 2500 0.021636699875262462 0.09750063679917491 0.02390684736044466 0 0 0
132 1 0.005 2500 0.031252532540994554 0.09750012394586803 0.02299400973237474 0 0 0
580 1 0.005 2500 0.036269926525467955 0.09740674643800248 0.022785678585748974 0 0 0
1119 1 0.005 2500 0.04919802665122644 0.09748705956670413 0.021233890405513177 0 0 0
1234 1 0.005 2500 0.05417556505590499 0.09750051281891078 0.020767039826420808 0 0 0
765 1 0.005 2500 0.05950337570231638 0.09702279655170296 0.020853175446494326 0 0 0
1515 1 0.005 2500 0.06476359459476537 0.09743349974398634 0.02070044394037068 0 0 0
717 1 0.005 2500 0.06970244644943671 0.09667847469623071 0.020513505508956868 0 0 0
1036 1 0.005 2500 0.07480647426297429 0.09750035016349394 0.02025860289596128 0 0 0
1664 1 0.005 2500 0.0797980178108275 0.09713310896367848 0.020145970564992514 0 0 0
931 1 0.005 2500 0.08456484609268723 0.09750029610150651 0.021607655950860147 0 0 0
1511 1 0.005 2500 0.08938245972363941 0.09685127291842514 0.022776524436482537 0 0 0
1365 1 0.005 2500 0.09451060941631992 0.09750005389028221 0.023558585782784146 0 0 0
49 1 0.005 2500 0.00946393450512437 0.02687787100830148 0.024450666978057065 0 0 0
1547 1 0.005 2500 0.004454126029882022 0.03114554216405104 0.027048726240834365 0 0 0
648 1 0.005 2500 0.019648549181433342 0.03337326755857371 0.024645417651901657 0 0 0
554 1 0.005 2500 0.024103142431291035 0.03414694813926042 0.026779841664657113 0 0 0
594 1 0.005 2500 0.0027125585710759664 0.03963333607868555 0.024842905758886938 0 0 0
425 1 0.005 2500 0.012108478524673923 0.0379312614180584 0.024069033307166574 0 0 0
466 1 0.005 2500 0.015418289333961941 0.03926313285682986 0.027571645571781263 0 0 0
1281 1 0.005 2500 0.02026499210319215 0.03821863674328761 0.026926289077551374 0 0 0
639 1 0.005 2500 0.0308314642431797 0.038770642324562114 0.026197689723960405 0 0 0
88 1 0.005 2500 0.0069294226416990795 0.040282539270209326 0.027449813927171572 0 0 0
1058 1 0.005 2500 0.017595122822315373 0.0422397579837113 0.024195373671711658 0 0 0
721 1 0.005 2500 0.02130948310388099 0.0430817559958583 0.027434387937542035 0 0 0
391 1 0.005 2500 0.02459638888720819 0.04138485060391642 0.024070828020101215 0 0 0
17 1 0.005 2500 0.028791868627244553 0.0433322139948834 0.0260218085638476 0 0 0
561 1 0.005 2500 0.03376967039409701 0.04290233624827917 0.025834955200188175 0 0 0
678 1 0.005 2500 0.04545459640501124 0.04280534534354958 0.02531122686491309 0 0 0
810 1 0.005 2500 0.0024997962210448234 0.04450630917135073 0.025942141828582604 0 0 0
645 1 0.005 2500 0.013230670169864518 0.04453233440150198 0.02502568810191833 0 0 0
1138 1 0.005 2500 0.01763846703293076 0.04643770733521909 0.026910520644822786 0 0 0
8 1 0.005 2500 0.02237680800291896 0.04775323080922012 0.026007534453008352 0 0 0
1398 1 0.005 2500 0.03950857320328948 0.04689381987398853 0.025322499651813157 0 0 0
189 1 0.005 2500 0.057668481721738295 0.046451213146648976 0.02472029382152893 0 0 0
2006 1 0.005 2500 0.0046535282531619876 0.048697290242396364 0.027613646444653358 0 0 0
462 1 0.005 2500 0.010554883867978697 0.048155837794746276 0.02719512694119726 0 0 0
628 1 0.005 2500 0.014478565813223912 0.04932276953074213 0.024324445786287917 0 0 0
1104 1 0.005 2500 0.02976874181174348 0.048224847046854126 0.026348154681509292 0 0 0
161 1 0.005 2500 0.03475777913008275 0.04841813392660837 0.025645790235312157 0 0 0
546 1 0.005 2500 0.04362441596984904 0.04969104189901346 0.024838260068942738 0 0 0
402 1 0.005 2500 0.0026666212307343263 0.05288301314915156 0.025734715009227766 0 0 0
543 1 0.005 2500 0.006895791629830012 0.05500051613077957 0.02735574559641052 0 0 0
690 1 0.005 2500 0.011687218536362308 0.05332551114275577 0.025785092530622108 0 0 0
779 1 0.005 2500 0.01617193956646758 0.055604450065813354 0.025794519751002356 0 0 0
1680 1 0.005 2500 0.020281330299627972 0.05277370545784141 0.025484549744933308 0 0 0
235 1 0.005 2500 0.028253122332189528 0.05291694006862943 0.02717494204983055 0 0 0
627 1 0.005 2500 0.0323401477191648 0.054654773535226214 0.024878641926707093 0 0 0
549 1 0.005 2500 0.0370276323089 0.053584689461399965 0.02625011713838921 0 0 0
254 1 0.005 2500 0.04292247174616898 0.05449358854911164 0.026038127956008475 0 0 0
12 1 0.005 2500 0.050841809092612406 0.054871345858792005 0.024407537065130956 0 0 0
1558 1 0.005 2500 0.006611216075789831 0.05998695465913967 0.027126247745263603 0 0 0
666 1 0.005 2500 0.011493445781486577 0.05824449959155859 0.024911233344927067 0 0 0
118 1 0.005 2500 0.0196694131780981 0.059075463218565494 0.02675455257092005 0 0 0
129 1 0.005 2500 0.02379041149972707 0.05630523465712595 0.025942313829973425 0 0 0
233 1 0.005 2500 0.02859566199178466 0.05790431141703729 0.02725270475282082 0 0 0
962 1 0.005 2500 0.03540497155074163 0.05860126897169701 0.02466282638899686 0 0 0
1292 1 0.005 2500 0.03953631080295396 0.057913510930941124 0.027393131830669395 0 0 0
292 1 0.005 2500 0.04394151322772509 0.05936139899503679 0.025523865291689048 0 0 0
1657 1 0.005 2500 0.05086446622369115 0.05973617067383529 0.025559959233896527 0 0 0
1556 1 0.005 2500 0.05647322991782061 0.058748813658303395 0.025353718758688214 0 0 0
1500 1 0.005 2500 0.06166062400167854 0.057782582069580514 0.024896945937928298 0 0 0
1434 1 0.005 2500 0.06653095640495423 0.05913989326151399 0.024635187164737764 0 0 0
1639 1 0.005 2500 0.0024998250787385554 0.06354430840806419 0.02423564948753017 0 0 0
69 1 0.005 2500 0.012247193470931186 0.06318064367075511 0.024661307198960297 0 0 0
1351 1 0.005 2500 0.01496147663498402 0.06039328673658019 0.02780145917487257 0 0 0
1182 1 0.005 2500 0.01934328518925473 0.06342174572487845 0.02430493920348244 0 0 0
1831 1 0.005 2500 0.023415388218875722 0.06233457961156868 0.02734072400465615 0 0 0
338 1 0.005 2500 0.03173645683308165 0.061642392859285855 0.02617581615567504 0 0 0
990 1 0.005 2500 0.03759513527361361 0.06331789510861585 0.02492575666631752 0 0 0
151 1 0.005 2500 0.047313688569022766 0.06346506982508701 0.02490181875385413 0 0 0
54 1 0.005 2500 0.06269952520415983 0.0629002973620624 0.02507653105811723 0 0 0
598 1 0.005 2500 0.06936910006119446 0.06307487760640242 0.02584260443280458 0 0 0
372 1 0.005 2500 0.07509271951640539 0.0636179669633053 0.025619529298314486 0 0 0
1114 1 0.005 2500 0.015856992562559406 0.06551957638741995 0.02720991176613015 0 0 0
758 1 0.005 2500 0.027153886734177905 0.06604137417418737 0.026606438295053818 0 0 0
484 1 0.005 2500 0.03241202067539282 0.06658963546717321 0.02592246979788606 0 0 0
427 1 0.005 2500 0.04154744769003423 0.06632155154961233 0.02433018423623189 0 0 0
1390 1 0.005 2500 0.051709560246811115 0.06440756668312614 0.027127810143377316 0 0 0
777 1 0.005 2500 0.05884630882473221 0.06682464020614967 0.024331178294458418 0 0 0
783 1 0.005 2500 0.06597434475672219 0.066677765406028 0.02514022707716046 0 0 0
741 1 0.005 2500 0.08543715169355899 0.06682224648633858 0.02410838650597467 0 0 0
1539 1 0.005 2500 0.0024999576409369855 0.06840645440768914 0.026339956288371085 0 0 0
1461 1 0.005 2500 0.007460613319275516 0.0693483297201821 0.024661997150535415 0 0 0
787 1 0.005 2500 0.012557697296109617 0.06816956607113764 0.024547528354785974 0 0 0
179 1 0.005 2500 0.020900874834451823 0.06807671784462678 0.02525400150172659 0 0 0
1391 1 0.005 2500 0.030581305696672844 0.07107905559141717 0.024702630565121994 0 0 0
168 1 0.005 2500 0.03447127690492988 0.07134354629143416 0.027832178947426747 0 0 0
336 1 0.005 2500 0.036970654520611004 0.0682860427268061 0.02476612714223677 0 0 0
373 1 0.005 2500 0.0414317402570954 0.0711872553251307 0.025474767650459626 0 0 0
29 1 0.005 2500 0.0458068844396951 0.06877993364125315 0.025230556905473857 0 0 0
125 1 0.005 2500 0.0505023041179981 0.06924470946753958 0.027501484060531024 0 0 0
1560 1 0.005 2500 0.054256246457442904 0.06944692658423053 0.024205328269571502 0 0 0
588 1 0.005 2500 0.058566024928094165 0.07171343734119423 0.025339574152862122 0 0 0
89 1 0.005 2500 0.06209052033665974 0.0683058932734483 0.02783517601289611 0 0 0
428 1 0.005 2500 0.06352509284173212 0.07197821948615839 0.024760482233457125 0 0 0
395 1 0.005 2500 0.06890830623928823 0.07131366579825779 0.024960791563388107 0 0 0
381 1 0.005 2500 0.07285920227338119 0.06824993057628194 0.024919422660729437 0 0 0
1957 1 0.005 2500 0.002499097410270817 0.07469378971610935 0.027608074896586905 0 0 0
411 1 0.005 2500 0.01076979759795729 0.0730819447419294 0.024987388442780988 0 0 0
675 1 0.005 2500 0.017546016092967815 0.07392758174276023 0.025965782866746032 0 0 0
213 1 0.005 2500 0.023126587598107748 0.07219027057418421 0.02758494306583163 0 0 0
572 1 0.005 2500 0.02545921478925453 0.0749409850260564 0.02412124810471679 0 0 0
437 1 0.005 2500 0.048944403874020964 0.0724809961976636 0.024023715389568254 0 0 0
225 1 0.005 2500 0.05333932280314963 0.07410705121103728 0.02576683252372901 0 0 0
604 1 0.005 2500 0.06666648379886016 0.07564865047307266 0.02604754540300484 0 0 0
837 1 0.005 2500 0.07207038290376243 0.0755940164460848 0.02402430585585932 0 0 0
641 1 0.005 2500 0.07572751377461018 0.07234269731438295 0.025049770475344738 0 0 0
1094 1 0.005 2500 0.07920458255758238 0.07582917278340136 0.02418431990426771 0 0 0
519 1 0.005 2500 0.007297635472638893 0.07861848576291794 0.027531966575525358 0 0 0
119 1 0.005 2500 0.015463584055917329 0.07841333914499725 0.026697654648085534 0 0 0
322 1 0.005 2500 0.02204675858262919 0.07707119464956211 0.027498392503997368 0 0 0
1150 1 0.005 2500 0.026924891190030737 0.07814441096217464 0.027716564046454426 0 0 0
318 1 0.005 2500 0.0312730173719535 0.0766944208143589 0.025720045052172527 0 0 0
1508 1 0.005 2500 0.03616349230944374 0.076024109713674 0.027358023169563216 0 0 0
723 1 0.005 2500 0.04529988858038519 0.07679169294085592 0.026755261000250292 0 0 0
1280 1 0.005 2500 0.0535927668444769 0.0790396257005824 0.02499155886318331 0 0 0
361 1 0.005 2500 0.06194280322643758 0.07672059302744347 0.02480782779232009 0 0 0
526 1 0.005 2500 0.07294084252768986 0.07926322769370142 0.02730733465877355 0 0 0
1188 1 0.005 2500 0.08548153978392864 0.07950283813307754 0.025027239139465175 0 0 0
1380 1 0.005 2500 0.002499495715996488 0.08348806257436925 0.02538044761173686 0 0 0
624 1 0.005 2500 0.007083180960959057 0.0836110411945589 0.027371829770045916 0 0 0
509 1 0.005 2500 0.011546288149342818 0.08137432015821189 0.02763528249711779 0 0 0
502 1 0.005 2500 0.021172661831167665 0.08197557578080533 0.02624794526413795 0 0 0
358 1 0.005 2500 0.028933172094105338 0.08342566012996849 0.026535066874851864 0 0 0
186 1 0.005 2500 0.03489011129271623 0.08146243664023425 0.02753075161388128 0 0 0
957 1 0.005 2500 0.03939354163400513 0.08315238097390744 0.0261660315079519 0 0 0
310 1 0.005 2500 0.04408289287307097 0.08157019987108323 0.027579242789115357 0 0 0
368 1 0.005 2500 0.04810628122155973 0.08042903147409881 0.024091084811378137 0 0 0
238 1 0.005 2500 0.05148748205095442 0.08338516161483839 0.026287553350137237 0 0 0
830 1 0.005 2500 0.05626563545657239 0.08338873571828953 0.027759385144333994 0 0 0
351 1 0.005 2500 0.06051504607011182 0.08133002940470646 0.02611577643295193 0 0 0
582 1 0.005 2500 0.06813418018279235 0.0805418831446264 0.026798903139040008 0 0 0
385 1 0.005 2500 0.07948266015893701 0.08059691750625253 0.02566355400125978 0 0 0
784 1 0.005 2500 0.01363327844983462 0.08704475742538198 0.025623257110263396 0 0 0
763 1 0.005 2500 0.023280632361651097 0.08679978595531812 0.02764343878583455 0 0 0
1548 1 0.005 2500 0.032466848568936536 0.08673536820282039 0.027782156407600542 0 0 0
523 1 0.005 2500 0.03661339640226891 0.08798887234479984 0.025034921340145292 0 0 0
1051 1 0.005 2500 0.04249651540780975 0.08703555668290903 0.026750621308846097 0 0 0
726 1 0.005 2500 0.05360309543192687 0.08786699448558226 0.02694599414809602 0 0 0
1553 1 0.005 2500 0.06508917553017358 0.08593549979593079 0.026588342138805128 0 0 0
377 1 0.005 2500 0.06931244020518675 0.08714721516527743 0.024202643288032604 0 0 0
196 1 0.005 2500 0.08072408358756658 0.08533855222630406 0.02467790116599324 0 0 0
16 1 0.005 2500 0.08476907726697656 0.08766742908588165 0.02647064624087387 0 0 0
524 1 0.005 2500 0.08824551225366098 0.08433364835755272 0.02512930866016488 0 0 0
288 1 0.005 2500 0.002499756465857212 0.0882945864126305 0.02691046816267999 0 0 0
872 1 0.005 2500 0.007434315072733539 0.08904468821498439 0.02661733908698274 0 0 0
262 1 0.005 2500 0.018241580633169628 0.08822685052011747 0.02408808299787034 0 0 0
178 1 0.005 2500 0.02082392204776525 0.09136684799576354 0.02699681529792103 0 0 0
163 1 0.005 2500 0.027562234126095393 0.08810144124132137 0.025414614178172572 0 0 0
138 1 0.005 2500 0.048451853459397724 0.08926330713506829 0.02571137981068994 0 0 0
236 1 0.005 2500 0.05661082896189017 0.09197772622136081 0.02655358501549352 0 0 0
1286 1 0.005 2500 0.06072160617484629 0.08914361104283551 0.026295136724386565 0 0 0
180 1 0.005 2500 0.08039120380910944 0.09028379324935931 0.0240234710153072 0 0 0
733 1 0.005 2500 0.08924644672088142 0.09095826609443422 0.024282361962203753 0 0 0
279 1 0.005 2500 0.003411843475925195 0.09289564231947002 0.024211802057315795 0 0 0
244 1 0.005 2500 0.0068748697094049745 0.09511705007729268 0.027084837551231058 0 0 0
43 1 0.005 2500 0.011086920463440411 0.09251021989474686 0.02776046964569405 0 0 0
190 1 0.005 2500 0.025030725556892515 0.09230668469319704 0.02446480379287357 0 0 0
253 1 0.005 2500 0.029627032067604683 0.09378250890096901 0.02621615628207324 0 0 0
369 1 0.005 2500 0.0345334140244016 0.0929186487910424 0.027469063413146966 0 0 0
294 1 0.005 2500 0.04298816335571807 0.09262365839547514 0.02793805880743818 0 0 0
493 1 0.005 2500 0.06733078373269252 0.09254391280882535 0.024954128151315088 0 0 0
220 1 0.005 2500 0.07255665137370956 0.092654627376069 0.026069882818849626 0 0 0
1431 1 0.005 2500 0.07744309437958681 0.09289879486372753 0.027100595092143753 0 0 0
44 1 0.005 2500 0.0815745195669735 0.09566301605089543 0.027835646742431212 0 0 0
991 1 0.005 2500 0.08469271303599657 0.09283832804899857 0.025134617433900067 0 0 0
330 1 0.005 2500 0.002499331344873593 0.0975006247153641 0.027489545880086123 0 0 0
299 1 0.005 2500 0.012277319675055786 0.09740074356433376 0.024182165444460203 0 0 0
652 1 0.005 2500 0.017008030749082862 0.09750060737999451 0.025796259294103185 0 0 0
99 1 0.005 2500 0.02659098943153154 0.09750045534782817 0.024817914238450322 0 0 0
232 1 0.005 2500 0.032561659280587296 0.09749989309853849 0.027818943779058188 0 0 0
313 1 0.005 2500 0.03755953825847371 0.09750036794932418 0.027944977326939735 0 0 0
684 1 0.005 2500 0.04102119491220077 0.09750038583715752 0.02433830403982062 0 0 0
472 1 0.005 2500 0.046396803618588965 0.09750037039947668 0.025375115017253813 0 0 0
816 1 0.005 2500 0.051377406845770135 0.09750029332138875 0.02581276076067776 0 0 0
857 1 0.005 2500 0.05679288510797507 0.09750025697873614 0.025026612026287892 0 0 0
1452 1 0.005 2500 0.06297276016335736 0.09750053142359334 0.02536791372866833 0 0 0
327 1 0.005 2500 0.06796684456651476 0.09750013840446516 0.025129555629534523 0 0 0
1396 1 0.005 2500 0.07301980833770011 0.09750011025602892 0.024927809443281573 0 0 0
224 1 0.005 2500 0.07804167155837341 0.09750032985403827 0.02481234955660098 0 0 0
459 1 0.005 2500 0.08599684058478274 0.0975000659001774 0.026397882784710572 0 0 0
527 1 0.005 2500 0.09126575745621772 0.09750014393716636 0.02736228795436579 0 0 0
695 1 0.005 2500 0.002499724540300289 0.041113068716514045 0.029614080709215725 0 0 0
749 1 0.005 2500 0.011414940799763504 0.04194727387156839 0.028900812811019527 0 0 0
748 1 0.005 2500 0.02543459188661193 0.04533550483336348 0.029138310291522605 0 0 0
97 1 0.005 2500 0.01648959261520899 0.05136258420625517 0.028422165808323296 0 0 0
250 1 0.005 2500 0.023746177496405826 0.05160015615340351 0.02889256067584953 0 0 0
610 1 0.005 2500 0.002499925516416856 0.05202792848007666 0.03065788729690713 0 0 0
115 1 0.005 2500 0.009750634909534926 0.05205726152874975 0.03021670100576552 0 0 0
420 1 0.005 2500 0.01946590921836934 0.05512966719495276 0.02981835653215235 0 0 0
2100 1 0.005 2500 0.0024994979152221917 0.057302654049715386 0.028065176352144446 0 0 0
370 1 0.005 2500 0.009902816361107068 0.05964823048993499 0.03087432312382115 0 0 0
320 1 0.005 2500 0.013138039732224525 0.056006611856862724 0.029747952458933788 0 0 0
286 1 0.005 2500 0.00249983507351546 0.0622038156032472 0.029052035460081338 0 0 0
382 1 0.005 2500 0.03528777465803528 0.06021556758229586 0.029393211068631537 0 0 0
195 1 0.005 2500 0.04346042887808966 0.06362916372561275 0.02808363100865148 0 0 0
819 1 0.005 2500 0.006309307406143765 0.06796010486536573 0.029556790645187143 0 0 0
1181 1 0.005 2500 0.009209598552341108 0.0640163881975719 0.02854283301896834 0 0 0
416 1 0.005 2500 0.01275908999435527 0.06653894977792926 0.03099936694529904 0 0 0
406 1 0.005 2500 0.018488528113780624 0.06691541960815488 0.031225215684375727 0 0 0
483 1 0.005 2500 0.023194571559257894 0.0668966731397512 0.029537022970511008 0 0 0
517 1 0.005 2500 0.030459662830763772 0.06454106855841363 0.030044308771639043 0 0 0
581 1 0.005 2500 0.03587832957547305 0.06517794714693136 0.02923738047604189 0 0 0
1438 1 0.005 2500 0.0401326354517998 0.06778239531353815 0.028897637481636568 0 0 0
760 1 0.005 2500 0.05580633541198377 0.06702499599634475 0.02829544937903026 0 0 0
71 1 0.005 2500 0.002499702962639195 0.07091452440587212 0.030881265590558094 0 0 0
223 1 0.005 2500 0.010847669789567263 0.07115660131498153 0.031143136818948147 0 0 0
45 1 0.005 2500 0.014922257126169033 0.07039957554604948 0.02834628279500094 0 0 0
1021 1 0.005 2500 0.019151686319917195 0.07183090130884989 0.030595670613716208 0 0 0
1005 1 0.005 2500 0.007048326466246066 0.07274407631594187 0.028307766713514027 0 0 0
1134 1 0.005 2500 0.011974221215890849 0.07572138474546602 0.029058950882019638 0 0 0
137 1 0.005 2500 0.027946585173293705 0.07328901342335159 0.028331474929299768 0 0 0
575 1 0.005 2500 0.0244600327831905 0.07511409055910516 0.03141538118896256 0 0 0
306 1 0.005 2500 0.0426673492688493 0.0736667842114529 0.02963671289322885 0 0 0
560 1 0.005 2500 0.04758884516672157 0.07299452227564665 0.02906587834591854 0 0 0
555 1 0.005 2500 0.058856444006548325 0.07552970621609746 0.02855651072692195 0 0 0
750 1 0.005 2500 0.07069875428070452 0.0742037801610702 0.028626785312267807 0 0 0
1032 1 0.005 2500 0.002499337145590131 0.07960659195073828 0.028531372430752933 0 0 0
744 1 0.005 2500 0.018124143187187674 0.07672386502014865 0.030578768710703048 0 0 0
700 1 0.005 2500 0.031220144143022707 0.0791889341574694 0.030052608123378167 0 0 0
40 1 0.005 2500 0.036744143732213935 0.07890255570897099 0.03140466928376336 0 0 0
37 1 0.005 2500 0.040622231683535605 0.07804889083603764 0.028366595418939496 0 0 0
3 1 0.005 2500 0.046014557000939926 0.07880986006692318 0.031273432683843236 0 0 0
711 1 0.005 2500 0.04990633245722213 0.0780635241430565 0.028224587978890867 0 0 0
1057 1 0.005 2500 0.05466458531997718 0.0779757862352623 0.029757668380028444 0 0 0
1117 1 0.005 2500 0.06389611244495032 0.07888430503366237 0.028869865261821313 0 0 0
767 1 0.005 2500 0.0038951377958260035 0.08358127191442405 0.03122256606225958 0 0 0
362 1 0.005 2500 0.015001872163865431 0.0830320102516086 0.03084527642513908 0 0 0
565 1 0.005 2500 0.01973766430237801 0.08143683931135576 0.031006797892728536 0 0 0
32 1 0.005 2500 0.024992397261254032 0.08242009712323771 0.02944290826476989 0 0 0
461 1 0.005 2500 0.032450805792101356 0.08372021257144513 0.031770333080435156 0 0 0
101 1 0.005 2500 0.040526291141891796 0.08228580530795715 0.031019396246461366 0 0 0
4 1 0.005 2500 0.010572114664631564 0.0864660666742524 0.029533212480740707 0 0 0
390 1 0.005 2500 0.018473483697057563 0.0856219171231796 0.028348682395985352 0 0 0
41 1 0.005 2500 0.02813261926608219 0.08662891836879776 0.030288974453099398 0 0 0
686 1 0.005 2500 0.036781709327473704 0.08541634686433665 0.029935889710029133 0 0 0
597 1 0.005 2500 0.047377301955019546 0.08522663590293446 0.028458361392958584 0 0 0
105 1 0.005 2500 0.044130286136041585 0.0875800840426731 0.03144434347597117 0 0 0
300 1 0.005 2500 0.051756419296219436 0.08537404727940708 0.03086678244045447 0 0 0
141 1 0.005 2500 0.06105650636035462 0.08505283446739258 0.029408764641050713 0 0 0
643 1 0.005 2500 0.0034687346443790837 0.08852724097007017 0.031809487913758344 0 0 0
579 1 0.005 2500 0.007180793401259289 0.09177963899653062 0.030794932238618213 0 0 0
348 1 0.005 2500 0.014989547120941638 0.08873471826493587 0.030128877064398346 0 0 0
761 1 0.005 2500 0.020789622318211423 0.09008692422305313 0.03182954192236267 0 0 0
383 1 0.005 2500 0.025723581402232912 0.09087325260186122 0.029203851120457733 0 0 0
93 1 0.005 2500 0.030810951408690522 0.09085036967213286 0.030088769966459174 0 0 0
1054 1 0.005 2500 0.03901027342591659 0.08979932263170584 0.029031053364975037 0 0 0
65 1 0.005 2500 0.04870976451954919 0.0894932033845819 0.03069904916392708 0 0 0
1571 1 0.005 2500 0.0574785173576821 0.08848688003317715 0.030043205108591133 0 0 0
759 1 0.005 2500 0.0693650373418142 0.08968043071609742 0.0285124837247618 0 0 0
1331 1 0.005 2500 0.002499894225867971 0.09277642600796536 0.029126223520719786 0 0 0
116 1 0.005 2500 0.0162545612743234 0.09310167766019165 0.02804894122990386 0 0 0
1004 1 0.005 2500 0.02364509985678841 0.0953109268096665 0.028212276910710033 0 0 0
87 1 0.005 2500 0.03956918354967425 0.09427293783986185 0.031191626743167555 0 0 0
403 1 0.005 2500 0.047462580155034996 0.0944626623222134 0.029200221604074535 0 0 0
419 1 0.005 2500 0.05190310069315764 0.09240329203406145 0.02818238444809035 0 0 0
1061 1 0.005 2500 0.05969541463535638 0.09539229343591282 0.028508929740201198 0 0 0
632 1 0.005 2500 0.05669217562899067 0.09310583667210445 0.03178784874454325 0 0 0
1122 1 0.005 2500 0.06375835310877379 0.09247942854616795 0.028450996283485516 0 0 0
1338 1 0.005 2500 0.06826022022890076 0.0936225883056307 0.031382183115639756 0 0 0
752 1 0.005 2500 0.08836272116583621 0.09357711077202395 0.028448648895625685 0 0 0
650 1 0.005 2500 0.007389393969593198 0.09750036689584596 0.03144919070151188 0 0 0
1339 1 0.005 2500 0.011834110553462037 0.09750019383249241 0.02916058848928652 0 0 0
742 1 0.005 2500 0.019564031754311227 0.09750065651749847 0.030093310098118987 0 0 0
100 1 0.005 2500 0.027906128327016673 0.09750046583260148 0.029641547634110116 0 0 0
1025 1 0.005 2500 0.042780752091487684 0.0975005466622211 0.029017932252394622 0 0 0
625 1 0.005 2500 0.05066480422329949 0.09750018090929455 0.03154892285612661 0 0 0
1159 1 0.005 2500 0.055353727496448596 0.0975002448253463 0.02981434266033102 0 0 0
284 1 0.005 2500 0.06567156675855913 0.09750014520760468 0.029576431236264304 0 0 0
537 1 0.005 2500 0.07066555724622414 0.09750016103243908 0.029338432989342095 0 0 0
1007 1 0.005 2500 0.07564466789952692 0.09707537658022088 0.0291792466163948 0 0 0
1906 1 0.005 2500 0.0024999162110442828 0.05889848393068042 0.0328033790283535 0 0 0
1379 1 0.005 2500 0.006619277456810314 0.056125684161809096 0.032219263200371315 0 0 0
386 1 0.005 2500 0.006231766046553944 0.06270969581373537 0.03234052779849336 0 0 0
446 1 0.005 2500 0.0024996678480285212 0.06608889119003984 0.03219876277626111 0 0 0
689 1 0.005 2500 0.007799234041860539 0.0747773445221403 0.032813023827679276 0 0 0
436 1 0.005 2500 0.011716446691391172 0.07587969585907225 0.035717866612554376 0 0 0
1066 1 0.005 2500 0.014958988187319836 0.07351208666501305 0.03273832717689975 0 0 0
1521 1 0.005 2500 0.003055665965439876 0.07628035757259023 0.03231636293290275 0 0 0
374 1 0.005 2500 0.0067504728787758095 0.07964790798967523 0.0323937605342307 0 0 0
670 1 0.005 2500 0.011747617092468974 0.07952487290490165 0.03229604208721712 0 0 0
1012 1 0.005 2500 0.016350829182303978 0.07962361369220754 0.03424536393120318 0 0 0
795 1 0.005 2500 0.0024998675519212186 0.08051450867546911 0.03491648569862292 0 0 0
945 1 0.005 2500 0.002499826611382916 0.0854627750253953 0.035639434316330675 0 0 0
521 1 0.005 2500 0.008327507476863472 0.08427834798064959 0.03342837142681812 0 0 0
471 1 0.005 2500 0.012996800818705492 0.08441738014690406 0.0352107098744153 0 0 0
21 1 0.005 2500 0.017984968917844648 0.08621394626457705 0.033289182831227386 0 0 0
397 1 0.005 2500 0.02371722221738046 0.08610271824568608 0.032574851093445566 0 0 0
589 1 0.005 2500 0.03106253959830456 0.08790110726933259 0.03413516366962042 0 0 0
497 1 0.005 2500 0.006849725912121305 0.08966384726921772 0.035312899626214325 0 0 0
583 1 0.005 2500 0.011547559904644483 0.08897330925939513 0.03374723186003686 0 0 0
1517 1 0.005 2500 0.035217453472446744 0.08997572630306035 0.03228328189981323 0 0 0
634 1 0.005 2500 0.04038165753023791 0.08986365263325284 0.03383851405596139 0 0 0
126 1 0.005 2500 0.002499850950935532 0.092805834665888 0.03420612432933009 0 0 0
70 1 0.005 2500 0.011685779784502751 0.09382483741730922 0.03254676537540485 0 0 0
492 1 0.005 2500 0.01649822693297481 0.09255124389498008 0.03301202641190784 0 0 0
936 1 0.005 2500 0.023342395393857848 0.0927244147215828 0.035224210332943144 0 0 0
679 1 0.005 2500 0.02770768420176036 0.09355016590454514 0.032931004169879714 0 0 0
332 1 0.005 2500 0.03221157106131289 0.09290227182209337 0.03500288656417963 0 0 0
18 1 0.005 2500 0.04453062485703347 0.09240598516189287 0.03268894687361212 0 0 0
197 1 0.005 2500 0.05150594064946929 0.09283790188695148 0.03314725155280308 0 0 0
363 1 0.005 2500 0.0024994280378894712 0.09750080915401568 0.03248938466737813 0 0 0
102 1 0.005 2500 0.015323383563956594 0.09750015734826907 0.032740790937975044 0 0 0
569 1 0.005 2500 0.01959874320533306 0.09601928679809295 0.03486828419377222 0 0 0
67 1 0.005 2500 0.023854812789106897 0.09750031466669436 0.032701906207181775 0 0 0
552 1 0.005 2500 0.030637773474821956 0.09750037052817641 0.03382878264879814 0 0 0
460 1 0.005 2500 0.03534240949911583 0.09667894741243795 0.0323499574001521 0 0 0
113 1 0.005 2500 0.041167042304177885 0.09750025128415128 0.03465963680424709 0 0 0
2099 1 0.005 2500 0.045866122918191435 0.09748039165942905 0.032951845571565094 0 0 0
657 1 0.005 2500 0.061678801747311336 0.09750014508921591 0.03258564788782049 0 0 0
94 1 0.005 2500 0.0027474379141387275 0.08976807208264714 0.03816941543221709 0 0 0
447 1 0.005 2500 0.02132808553652054 0.08818357817437245 0.036442425257748864 0 0 0
533 1 0.005 2500 0.010551423625941067 0.09243570854565782 0.03721372031172276 0 0 0
167 1 0.005 2500 0.018363403988005355 0.09203293286702272 0.037621685560689594 0 0 0
221 1 0.005 2500 0.0024996926739822645 0.09664037521652465 0.03741435713885085 0 0 0
635 1 0.005 2500 0.007329294366354108 0.09750011189562027 0.036448351165415685 0 0 0
290 1 0.005 2500 0.012313447219844287 0.09721666922970504 0.03672258015277703 0 0 0
301 1 0.005 2500 0.026669111508109987 0.09661885564533053 0.036739255606105185 0 0 0
592 1 0.005 2500 0.03434791641085865 0.09750008041219957 0.037180415219324935 0 0 0
66 1 0.005 2500 0.00951531754827291 0.09591149822605839 0.040655036859395005 0 0 0
571 1 0.005 2500 0.0048952853787959305 0.09750015818950776 0.0417176335824892 0 0 0

Velocities

1678 7.016489951372123e-08 -3.900987655299563e-09 5.966897772465635e-08 1.2799461084574746e-05 -1.0436410285402557e-05 -3.7220607095095725e-05
1245 3.492149361213786e-07 -1.0736478316557568e-08 -2.2006675720227516e-09 -2.2085117805401318e-05 -1.0338253123495492e-06 -0.00012922665279889545
1918 1.1765413752296865e-07 1.1184518947231544e-08 -1.212489253004392e-08 -5.231258902947138e-05 6.752229936364186e-05 -5.911371367020349e-05
2122 6.606280508983176e-08 8.161116019837887e-09 -2.0689570754457597e-08 -1.3902168702575792e-05 -4.7277100117328715e-05 2.4391242405684732e-05
1570 8.051293383658573e-08 1.2835215225847086e-08 -2.310355730973301e-08 -2.635203627000571e-05 4.1066362671616184e-05 6.910955806133845e-06
1930 8.528735515076317e-08 -5.583346181870129e-09 6.101775771410855e-08 1.806097098221554e-05 -5.455079325180668e-05 -2.8055054103782535e-05
1393 1.2205955197389642e-07 -2.782873296642537e-08 3.18434138295372e-08 -1.2004332100049567e-05 3.699579783708864e-05 -4.645706805455769e-06
2005 1.3514647311336123e-07 -8.32709322169202e-09 5.378068880389535e-09 2.6033355476808654e-06 -2.488039460637693e-05 1.169058805197372e-06
1144 3.781143308406737e-08 -1.8386446520275906e-08 9.4159520870895e-08 5.65170528364098e-05 4.232775507695451e-06 -9.297246889321758e-05
1202 1.0641775229348237e-07 4.1097555883931174e-08 -9.687051909924482e-08 -1.1635684447894838e-05 0.00017041041541241423 -9.420893338628764e-05
1879 -1.260805231136294e-07 1.0494799885300878e-07 2.848374984299398e-07 -2.3516000199062612e-05 0.00013453304076844306 -0.00010908037725236505
1135 -1.8832044249629664e-07 6.555646113270579e-08 7.701908060942022e-08 -1.2404759678516056e-05 -7.809518730393819e-05 9.66117786887456e-05
2017 -3.224091066644393e-07 6.831813500377579e-08 4.404600794746853e-08 -3.0491102907101893e-06 -8.042921403802984e-05 6.507423880282844e-05
1205 -2.285006476941705e-07 8.928530593016059e-08 5.118277282977642e-09 -1.4975692534893904e-05 -2.0787268271439944e-05 4.0206402346914846e-05
1901 -1.1398749190415475e-07 3.443648974617951e-08 -7.605559784875377e-08 -2.8530398500478126e-05 -1.227970277574542e-05 -1.4848800262360697e-05
1265 -2.492292125267108e-07 -1.0261998972143017e-07 -1.0904417237060302e-08 6.859935735594702e-05 6.588394653329065e-05 -0.00021627734378268972
1934 3.177982453679808e-05 -1.9138260932940005e-05 -7.265194703766641e-15 0.022222615399190196 -0.014120061714539086 0.019315787531440084
1564 2.080752963711831e-07 -3.746586028054703e-08 -4.932112193855365e-08 8.217548117234735e-05 1.6361844799597757e-05 -3.7491241794797506e-05
1965 3.9728633729407177e-07 2.4961568741718995e-08 -9.32023764337465e-08 -3.904931688627094e-05 0.00019827207377819822 7.641085099847049e-06
1670 3.9571002493583354e-05 -8.793980056052682e-05 -7.265204363225112e-15 -0.10729675016037157 -0.023633563429561553 0.008712370134565313
808 9.459874698450414e-08 1.4032365511050218e-08 -1.009482602167562e-08 1.7328079228205357e-05 2.2643814285561695e-05 -3.227010297028385e-05
2097 2.6824964087293146e-07 -9.163688663311059e-08 -2.0608445888967935e-08 9.118277049947585e-05 4.9236884527813815e-05 -2.251307651958276e-05
1987 1.840383065109202e-07 -7.975031760812305e-08 7.388608074931425e-09 1.9062545324688968e-05 7.965856067709475e-06 3.4341151813719794e-05
2058 1.4431842750877224e-07 -4.408586980696937e-08 4.6716306141317764e-08 4.153868407766628e-05 4.3181960846102415e-05 -5.487350242964498e-05
1482 1.1347935531106366e-07 1.7193591051524692e-07 1.3049277186337795e-07 3.820988230190169e-06 1.7144218813952265e-05 4.9100583463047836e-05
1863 -1.325388768185857e-07 -1.1534424556261796e-09 7.069597646243932e-08 -5.827708788888664e-05 0.00011016872592661127 0.0002317952402811957
2166 -6.347099254324122e-08 -1.3448443107682023e-10 9.48056050974486e-08 -4.3326782084617837e-05 -9.025403124959133e-05 0.0001312986556757754
389 -1.2152772055473758e-08 6.034739572500301e-08 8.374114779849944e-09 3.398631993150402e-05 1.7122732101696939e-06 0.0001870555574943775
1236 -2.664606810584645e-07 2.0616180926459008e-07 -1.0173973086596547e-07 -2.2852869811147778e-05 -8.746648528698748e-05 0.00016660379523776697
357 -2.9750286990107607e-07 2.1629623836107303e-07 -7.27593664463007e-08 -8.208776851832096e-05 4.1635118662484376e-05 -3.808505006847873e-05
346 -1.5561441596508796e-08 1.7603423805603696e-07 -2.5391563665727517e-08 -6.395479768021148e-05 8.075709056285736e-05 -0.00012743772632418964
1413 -4.9317734225399716e-08 6.966130649665266e-08 -9.670670210580519e-08 2.576323702251043e-05 -4.766195201391451e-05 4.398741101030101e-05
2038 -8.78925489639226e-08 -2.418935344735033e-07 1.4216185119312474e-07 0.00012592780437668965 -2.5873771036042214e-05 5.632872258776745e-05
1607 5.8115068792756555e-08 -2.0815647039068417e-07 -7.09081661717618e-09 4.664602038488071e-05 4.031846194704606e-05 -7.319724215883457e-05
1643 2.548413709560748e-07 -8.162758691503336e-08 -9.423525974666e-09 -4.192104016572864e-05 6.355054127510557e-05 1.2462114590144885e-05
2076 -1.230266728901241e-06 1.8581464285034267e-07 3.799811257025635e-11 0.001116902868308998 0.0003889328967848036 -0.00026165307861371264
1691 4.213917498676697e-07 9.530379942845682e-08 2.970136719090619e-08 -3.4279473816612195e-05 7.364753177046571e-05 -7.150051183525758e-05
1994 -1.0518992654232918e-06 2.3721665714441552e-07 5.6236668945113755e-09 -0.00012871155219308788 -0.00024500149369089937 0.0008148205222493416
1605 1.6076561468806178e-07 -1.866069110022326e-08 -4.9611125178508736e-08 -7.323104457859347e-05 2.1274581085393338e-05 0.0002597826035514106
1731 -1.0057757666046233e-07 1.1058059602040479e-07 2.7124559170026616e-08 -7.110046771957171e-05 -3.3768766256776305e-05 0.00014001917002355048
918 -1.0965379973529987e-07 4.606958213483171e-09 1.2038328908967733e-07 -2.451154231566429e-05 -4.1116231830559596e-05 -0.00027811408016997747
1137 -8.922974869928185e-08 3.1510428210682935e-08 -6.488962739059693e-08 -2.9929550740637093e-05 -5.7178861195868857e-05 -0.00020720275194396353
1337 4.409306998137378e-08 1.2485125725245387e-07 -3.6352612832390656e-08 5.251663852408164e-05 9.62750276689751e-05 -0.00013485188997219372
995 -8.368712889906564e-08 2.6413830369836444e-07 -7.495822062541888e-08 2.8743030832027157e-05 4.744997251593352e-05 -0.0001223964545436383
1898 -2.4235876568592686e-08 1.9290794049177821e-07 4.262059129731045e-08 -3.8330803192590014e-05 -1.0609159805224104e-05 0.00012231907432545849
1698 -2.3920798933519102e-08 3.229849192704537e-08 1.7653130606803744e-08 -3.710771287464082e-05 -7.667602582378177e-06 -7.408374423783122e-05
864 -9.364598833045727e-09 -3.273203444952979e-08 2.521370023948149e-08 6.710802330713448e-05 3.456625888552839e-06 2.811960247325924e-05
1687 -2.402063369335066e-07 -1.4310289341143902e-08 1.2157403419069477e-08 -1.3491614163492387e-05 -5.1367380536673297e-05 0.0003508476531549481
1602 -2.8081614149514364e-08 -2.652105363160773e-07 -4.082238469832468e-08 2.0951802742053426e-05 -3.237675524492869e-05 9.178630767151114e-05
534 1.6485192156975e-07 -1.3006699556496968e-07 -6.36030267848572e-08 8.470864075551343e-05 2.639445048259586e-05 6.462211915536889e-05
1803 3.6147763317186465e-07 -1.3397463414956458e-07 1.123087673540364e-07 8.326098302460041e-05 5.937468989591758e-05 0.00025199709438793573
2155 -4.491910252029582e-08 4.805761356147578e-07 -2.697856856731183e-08 -0.00012555597756229718 8.245803875254886e-05 0.0004106759110408328
2106 1.979839321751882e-07 1.4840770558576993e-07 7.443882232306439e-09 -1.8522829620870144e-05 4.9911731298224786e-05 -0.0003955066102600903
1417 1.1258666134876096e-07 2.2005110110707285e-08 -8.296752084441446e-08 5.3664278481225066e-05 3.6487151490921605e-05 -0.0002417804932499428
800 2.140733895546056e-07 2.5154023170362993e-07 -1.3550945934535974e-08 6.376168506409187e-06 0.00011289606405074795 0.0001087518848022607
1855 -1.7686622029473916e-07 7.347259922592756e-08 1.3055197483571315e-07 -4.55954316123946e-05 -8.024740894697713e-05 0.00022151712126032834
1546 -2.66454056371767e-07 3.374207595640157e-07 8.432255141111797e-09 -3.925326756214039e-05 -4.472309905648275e-05 -0.0001088229739812164
1656 -1.572392192347396e-07 3.1421127662205737e-07 1.5165722551594644e-07 -6.971202189944398e-06 -6.877159390638059e-05 0.00016015205508326824
1407 -1.1269356428658958e-07 1.9933177869264252e-07 3.4987611509865044e-08 -1.2107651716502573e-05 -1.627449206846112e-05 0.00013122841702871364
1985 -2.976784450329866e-08 3.259096721014501e-07 6.918919737781248e-08 -7.257128393279387e-05 3.210162694213424e-05 2.0488907117126312e-05
1366 0.00012675752345781802 -2.2593660940884764e-05 8.637592874433813e-15 -0.11974313850942982 -0.030105734136102652 -0.0034978743999756166
1143 -2.0291231436996524e-07 1.577690819863817e-07 -1.336900897440774e-08 -6.534121217803193e-06 -0.00011921214150877525 1.1019027273984943e-05
439 -9.129538440883962e-08 1.2720852952297524e-07 1.1326007239984025e-07 -7.55839313701423e-05 -1.0619765181530126e-06 4.120857292993539e-05
2066 1.2911486821877016e-07 -5.760190195636616e-08 2.2420078394412537e-08 -4.598138482225452e-06 9.058407758834024e-05 -0.00013947795523096653
2150 -2.722855681172695e-07 -2.9657121405017556e-07 5.005146707153791e-09 7.431192794445602e-05 -0.0001267845297582223 -7.990861093192032e-05
1471 2.6398238749634737e-07 -2.24674008772856e-07 9.271272491728792e-08 0.0001289929179976468 6.712921205326411e-05 -0.00012025339200911854
1230 -3.6887400692332454e-07 1.0756504785983094e-07 -2.0278143325014374e-08 -9.648850732894866e-05 3.571271222008999e-05 3.789712877242952e-05
2113 -1.2493479213756208e-07 1.8632289843368497e-07 -2.5247417252856353e-08 1.275372665644731e-05 -0.00010690037414489283 -0.0007854654938851715
1917 2.7358475414997666e-08 -1.8093689160694617e-08 9.846278691775286e-08 -3.1579960426698213e-06 4.829989179544417e-05 0.00045838499598897786
1925 2.368447957930511e-08 -3.7569196632824416e-08 -4.514869174216231e-08 7.162802092214586e-05 3.104477101336643e-05 -0.0003329951246600119
1189 -9.146943286373003e-08 -3.1262094517606934e-08 7.762430731892202e-08 -1.9174766730878735e-05 -1.5051849150052035e-05 0.0002752213109724199
1210 6.176054531065997e-08 1.8367566665072473e-08 -1.2114788679627153e-10 -5.847553266624998e-06 -3.627532378003062e-05 0.00022280569735580843
898 -8.940399855112278e-08 3.141941773550881e-07 8.404991324511953e-08 -1.6940530935648413e-05 -2.4846849855005528e-05 -1.2041525873680795e-05
2061 1.4158393124486073e-07 4.326374752554988e-07 -1.640020690360297e-07 -0.0001972883184527673 3.6883120606703224e-06 0.0011323913579390143
1786 -9.860802426818969e-08 2.3882821913772737e-07 -1.5528943608155278e-08 -7.407413141258979e-05 -1.070068805471592e-05 -9.935379557597464e-05
426 -2.4899607550853383e-07 1.9984782806492215e-07 7.754157255684544e-08 -8.123650568722188e-05 -0.00011492663100715988 7.044536358798221e-05
1755 -1.5941458755223622e-07 2.8230409503921266e-07 2.1052022550832255e-07 5.840081959998344e-05 0.00013182800423185406 -4.9460715150997704e-05
1522 -2.67782813386339e-07 7.719872471967643e-08 1.2548839197697184e-08 6.321435568816422e-05 -0.00016357489617340178 -1.5162540266795636e-05
1425 -9.108883040867673e-08 1.2379467526769255e-08 7.251417192190117e-08 1.8218966772327186e-05 2.7383289237257966e-05 3.632584713676512e-06
1601 3.2324842957960524e-08 -6.414700699823593e-08 4.272111049839788e-08 -2.8903315577676042e-05 -2.4400187193916093e-05 9.338312516174609e-05
2151 -8.894562291816173e-08 -2.3798686085887597e-07 1.6055359881181122e-07 0.00011273988086188272 -6.0025244189828896e-05 -2.913815719935887e-05
1996 -1.241093233365953e-07 -4.798876397094241e-07 2.1617755491728625e-07 8.345277090967915e-05 4.871459947781338e-06 0.0001861060869982498
1615 1.1187321489628972e-07 -3.3491690673658725e-07 -7.330197540407863e-08 0.00011532837447328668 -4.0328370081036634e-05 -0.0003738061350244475
1886 5.2226468653312334e-08 -1.8222855460863357e-07 2.0533073392603264e-08 7.926525215636607e-05 -3.380557499867961e-05 0.0004465287521062812
1739 -2.7095280608449973e-07 -1.509364697104641e-07 7.712393340280077e-12 6.85564562937207e-05 -0.00013242542572460908 -0.00016566442111243495
1667 -1.2936197332363464e-07 2.020808863526751e-08 4.838976131034159e-08 -1.9621795324780573e-05 -6.525255741986893e-05 -0.00015590939806459612
1388 -4.36162005404601e-08 3.729965105891696e-07 -3.1618758280850326e-08 -8.499709404796698e-05 1.3824037522214521e-05 -4.220403111236705e-05
938 2.851097827423466e-07 5.503325857381574e-07 1.2673086953984512e-07 -4.211043561274496e-05 0.00020826634953312654 -9.824323231529165e-05
612 -4.125246019016773e-08 3.9561052422535494e-07 1.207792180093556e-07 -0.00010552243903701837 -9.562558926420288e-05 0.00017962812391957706
817 -2.9094987717581034e-07 4.323479844574286e-07 1.84574274153615e-07 0.00013339763123937603 -8.786032334347465e-05 0.0002277080334375564
1048 -1.834878133652214e-07 1.875591829306638e-07 1.2317909079679103e-07 1.7253440355040236e-05 -1.2273228182608914e-05 -0.00017448559858576968
805 -1.1008288394423329e-07 1.7617628494051537e-08 3.844547111858757e-08 2.3001322660324124e-05 6.43346515527144e-06 2.6451982704891526e-05
2187 -1.8504785786577367e-07 1.6646176624092814e-07 9.125228467861338e-08 1.9369160084017484e-05 -8.204330182793248e-05 -1.889963523401151e-05
1569 -1.75339940184342e-07 3.787914606581207e-07 9.464279457057151e-08 -3.3423506662404484e-05 5.184774991445239e-05 5.921798500501141e-05
1120 -1.4315918996591946e-07 -2.4787942953927365e-07 1.2540677247711656e-07 3.006603644146313e-05 -6.912943409778541e-05 8.763922609636551e-05
2196 -2.9778803430314626e-08 -1.40793456432079e-07 1.8366302908142994e-08 3.251351583731017e-05 2.7807117648178214e-05 -9.670834373622619e-05
1789 -8.335573840971295e-07 1.8121208902428523e-06 8.637592699755721e-15 0.0001681500851475371 -0.0004306152142742358 0.000778130717835921
1110 -3.308999516552065e-07 -4.429306653562381e-07 -6.554050896104457e-08 -7.225811139970328e-05 7.745214511777186e-05 -0.00014374524382022998
1176 -0.00015164458580314792 -0.00013589081747709738 8.63758261654864e-15 0.24766404679737103 0.0843077891632171 -0.0606001600234816
1611 -5.922106360603376e-08 9.503633719207975e-08 4.3543829245314596e-08 -0.00011620637009556943 7.39483107703169e-05 0.0006375790426938609
1635 -5.480018791816617e-09 9.720050955465086e-08 7.819725737827042e-09 -6.39721709024513e-05 4.4854438964397866e-06 -0.0004409812377708084
2198 9.071891952361229e-08 -1.498049801895346e-09 6.435924581706887e-09 2.1093217515172096e-05 6.0584161124070176e-05 -7.24129232489189e-06
1360 -2.008978768204733e-05 -8.449734933883509e-06 8.637590646417191e-15 0.01844212265326594 -0.014382725048402286 -0.004156564159688915
2095 -1.7706994823185492e-07 4.88595513371587e-09 -4.2052162402945634e-08 -1.2127817532707246e-05 -1.847402534356375e-05 0.00017204831867005538
1332 -7.783561061414261e-08 7.927563435155994e-07 -1.3641577324088346e-07 -0.0002927189248917061 -2.745822961962175e-05 0.0002998350295057664
1454 7.586888914375161e-08 6.34794223015696e-07 1.761568497022363e-07 -9.247893458337409e-05 -7.900964734405869e-06 -0.0004013802074423639
985 -5.7596843210552984e-08 1.1336214466499271e-07 -2.2269986745583893e-08 -6.176819204463046e-05 0.00014074469816678303 0.00014530302930577873
2019 -7.573870472601782e-07 4.5923140405281126e-07 1.222530500889814e-07 -9.053282979519196e-05 -0.0002728299712246931 4.906891259596526e-05
1682 -2.6460338770647002e-08 2.3111117721708585e-08 -2.649877761344073e-08 -2.694435665117295e-05 -9.052192198590336e-06 -0.00016076057270369686
1870 1.1684569646361807e-07 -5.331808609516002e-07 -4.559821414836411e-09 0.0002151172627370897 5.445364957899714e-05 -1.9207690597337773e-05
1542 -5.898187745509793e-08 -3.002548613658122e-07 -1.0912850988205267e-07 0.00010201667216369385 -5.799363045444056e-05 5.355125357692001e-05
1861 -2.8351264098119653e-07 -7.34169940843727e-07 8.192068336535837e-09 0.0002295727865876122 -0.00018721775213524793 9.070721808064334e-07
1774 -1.620105554732842e-07 -2.3508057837148024e-07 -1.2218930841985294e-07 1.3741904117759058e-05 -9.505633233583877e-05 -0.0005855906158757751
1538 -3.560368033406446e-07 -2.3037006214704416e-07 -9.225029260171362e-10 0.00010697452975142893 -8.269556425884448e-05 -5.756997310771111e-05
1530 -4.196624639022465e-07 4.930704203869754e-07 -4.566974025965539e-09 3.498044086103879e-05 6.300584540232972e-06 0.00012254829759895255
1549 -5.518048630549659e-07 6.001389803364553e-07 1.2103596235412126e-07 -0.00012876558884354175 -0.000226952541852342 -4.446573528012396e-05
1988 1.5871313607813018e-07 1.1268862712093038e-06 1.1063141522789342e-08 -0.00039742193466798154 0.00011827552619173194 0.00027667211343120464
862 -3.4006765380225744e-06 1.987853335450007e-06 -2.704693882547054e-07 -0.0008583805774666847 -0.0013427054270079225 0.0063578081610036466
2159 -4.1785722861183203e-07 6.753405093557971e-07 9.017015147317503e-09 2.908222122388312e-05 1.8459633343372617e-05 -0.00026016795129544634
1404 -2.533478064816778e-07 2.15207473895653e-07 -1.0622407134893108e-07 -3.320637784439419e-05 0.00012433971346542064 -0.00017929374387869358
1578 -8.018842451133056e-08 1.854780423464093e-08 -1.4096072903088548e-07 -3.270104166844284e-05 -5.060382389268109e-05 7.563142036869265e-05
1715 5.5457050525050334e-08 -1.4478651666444666e-07 3.29688437703189e-08 4.928145501838484e-05 8.832743741127959e-06 9.05769279116676e-05
1172 1.2033283209038132e-07 -1.494795744829385e-07 5.116925042373429e-08 9.202129481331282e-05 8.22715363920048e-05 -6.510905615883479e-05
2003 -3.505764801419613e-07 -3.455211474775703e-07 7.307648635427111e-08 2.9447976476268463e-05 -0.00011326558115739156 0.0001896123232782164
2086 2.9677354225792324e-07 1.474444991945273e-07 -2.027043848438543e-08 -7.580638522647519e-05 7.036917866394498e-05 -6.094061399613282e-05
1591 4.401196320697837e-06 -4.5045678980079116e-06 -5.987462631489704e-08 0.0016611185207113814 0.001858473292601983 0.004615246253977342
1017 -4.7559590912479536e-08 1.318713058731047e-07 -2.01184254305585e-08 -7.611802826184792e-05 -8.25888383450823e-06 0.00010048022379831977
1609 -5.617571888046679e-08 1.223638963828053e-07 -9.31610522243832e-08 -7.600608787728369e-05 1.3554411750987323e-05 -0.00014755357978185407
1834 3.902142474968005e-05 -1.5140116902906654e-05 -7.265199446677401e-15 -0.020182151918307113 -0.025244328203314167 0.0015560913696060419
1072 -5.564862993476033e-07 6.087043042849854e-07 3.40155473838095e-08 -0.0001153862154913707 -8.321365796875823e-05 -5.796690024586633e-05
2012 -4.835661763775305e-07 5.96333698842482e-07 1.0938615966713297e-08 -1.865314094828028e-05 -0.00011227807130425288 5.882119141799642e-05
1737 -3.9395011945863045e-07 5.264122363677977e-07 1.7892176667050857e-07 -0.000133164018594209 2.276855144255507e-05 -0.00014503903843635993
998 -1.0862814105904445e-07 9.651379554169056e-07 5.548790162906319e-08 -0.0002494123114124674 -8.109732098542011e-06 0.0004418619011269698
1818 -3.836978154595191e-07 9.471913059410275e-07 8.964518924809182e-08 -0.000260338274023666 1.0739572393996359e-05 0.00017216182077408424
921 -2.311194075015325e-07 4.863180683980876e-07 -1.5868770426235412e-07 -0.00017421134256436204 6.868740705187768e-05 0.00015309512985897807
2001 -1.8825133307088612e-07 6.194216161448967e-08 -9.33883593084062e-08 6.609039366012807e-05 -1.2924536550939695e-05 3.6258498490487506e-05
2022 -7.630604363432862e-09 -1.0285695439768784e-07 8.390492665504241e-08 1.3114335899056621e-05 -3.411772027189408e-05 -5.630319821280522e-05
1660 -3.1057144821425346e-08 -5.686451997892478e-07 -8.087389758057005e-08 0.0001238286967190265 -5.942544955472026e-05 0.0003454217284418872
1795 -2.3408590137535882e-07 -1.04819541507369e-06 -4.459098818062375e-08 0.0003689341132325833 -0.00013711328279872743 -0.00022209073587767147
1436 -2.115634819415712e-08 1.4781036646552494e-07 -4.875423902871831e-08 -3.64165405656699e-05 5.6911574718735457e-05 0.000699720804512917
2109 -9.046813421283533e-08 6.788241958860779e-07 -1.3279173610602177e-07 -0.00020172531475273403 2.1066137557555344e-05 1.4181288064082884e-05
2186 9.56147871709984e-08 2.3270869882991628e-07 1.307624946858882e-08 -1.5643659146182083e-05 0.00011881892334118534 0.0002495475563457323
1729 -5.506400305487003e-07 2.842661869780512e-07 -5.642375119703768e-08 -2.3279552934362896e-05 -0.00029970123811283835 0.00029011832970374485
2176 -1.1977640529617308e-06 1.4909357173467046e-07 -9.795134172663463e-08 -2.8555703526727082e-05 -0.0003730817342576082 0.0002436247216429964
1216 -5.995825275211463e-07 5.874573783692326e-07 -1.8415600526096584e-07 -0.0001365148134397071 -0.00030355310676154256 -1.2059859178449551e-05
1215 -3.6580943555699926e-07 6.651844692925161e-07 9.195283654234407e-08 -6.750205097785894e-05 -5.801586886808456e-05 -1.7238136660098697e-05
1484 -5.902271481149767e-07 1.2320249199701662e-06 -1.6319168615684834e-07 -0.0003853526079675913 -0.00020092813098917864 0.0006912791936150314
1197 -5.725781027232754e-07 9.56720604730811e-07 1.3744479255350165e-08 -1.6453650632567916e-05 -0.0002128925321002767 -5.565733947363845e-05
1000 -4.788728890050933e-07 5.098818902097774e-07 -8.409655926102337e-08 -3.265183608435136e-05 2.213925897611672e-05 -0.00014849180211074254
1415 -2.7223346825558603e-07 5.300474300743491e-07 3.343100429172639e-07 -9.830141231976329e-05 -7.49125224002927e-05 8.41956266505618e-05
1981 -1.2629594591618074e-07 3.0713347085262814e-07 5.647138642298655e-08 4.9991801868574934e-05 -1.8302928567253486e-07 -0.00016081674474773406
1864 -1.7814684305997726e-08 1.5909896127453146e-07 3.6887815382340776e-08 -1.1503685933204735e-05 1.3394822887697215e-05 3.7780475997890024e-05
2021 2.4145570579213364e-08 -1.1073231643114306e-07 7.207218630163357e-08 4.247197218961691e-05 -3.120380758707826e-05 -5.3643850502172075e-05
2103 4.784277037357849e-08 1.1109983708971278e-09 6.6528776187729285e-09 1.1184337129807649e-05 3.673660197452484e-05 0.000175085871319757
1761 5.590737146808792e-08 -3.033020880132195e-07 -7.393338174740874e-08 2.6187055616926248e-05 -1.2391271193506207e-05 -0.0002940007109839801
1748 4.592055818879168e-05 0.00013960263045233973 -7.265205050163333e-15 0.07673278156314392 -0.09058528361461435 -0.023068078887977378
1782 -3.6672930188796233e-07 3.606245124829847e-07 -1.3386627611378817e-07 -0.00015275657647407481 -3.5307087202468295e-05 -0.00020375906851706368
1587 -2.6508678192262817e-07 3.3035035387952037e-07 -3.0641869374780003e-09 -8.002610534397447e-05 -6.542792589105187e-05 -0.00029358101997636817
1852 -9.186190636247033e-07 6.288540859939843e-07 -2.13535513447173e-08 -0.0001501552626680956 -0.00029359820009778486 -0.0012778672751925354
1108 -6.004260953441269e-07 5.549026471202042e-07 1.8973918403151368e-07 -2.930139890361859e-06 -5.593118023934519e-05 5.263912481177123e-05
1498 -5.561380174241369e-07 8.236277282452794e-07 2.0502962908511523e-07 -0.00010879839584857761 -9.695459136672879e-05 0.00012557331480044287
1130 0.000231353641167372 0.00022125436700099447 8.638551733567524e-15 0.2904808546333382 0.09973539573961662 0.08088356917157549
1712 -3.426668241925926e-07 1.1226974518445569e-06 1.4905759335476222e-07 2.7834435234850806e-05 9.630264217667398e-06 -5.292967944237917e-05
1781 -3.668479928660114e-07 9.49935021449991e-07 -4.19360416188991e-08 -0.0005071759010462963 6.994335249638606e-05 -0.00016829492660144817
2067 -2.463722740111263e-07 7.601352153837556e-07 5.77444126391264e-08 -0.00037009765263671144 -6.770494434930447e-05 -2.3071300108964392e-05
1945 1.2239755707660595e-08 -9.14405590149544e-08 -8.577328060872104e-08 -8.658578257226536e-05 -3.435845957830389e-05 7.319128349294881e-05
2114 5.532349533408881e-08 -1.4772210393497178e-07 -2.8967158804882703e-08 8.74962273584855e-06 -7.558568239738869e-05 -0.0003257148876909276
1644 1.74336452442357e-07 -5.893452224311873e-07 1.4641179466239726e-08 0.00014996742954093625 4.111379791149291e-05 0.00014722529886698413
2168 7.640790117655959e-08 -8.981828281122125e-08 9.367147192063403e-09 -1.871756861836941e-05 -4.540557455185782e-05 -7.436120118338227e-05
1784 -1.7213267501229162e-07 3.528069309024897e-07 8.601653916276868e-09 -0.0001190160884135634 -6.274338732510682e-05 -0.0006341163146935199
1897 -3.1932031019595307e-07 3.917507035203956e-07 6.659918873095569e-08 -0.00012064027638943246 -5.370507978807149e-05 -0.0001790182396773541
2040 -2.352330755350305e-07 4.019978598153072e-07 -1.9563116821248548e-07 -0.00016529595507313422 -5.322759883034763e-05 -0.00046585345167309195
1776 -3.5257226030006077e-07 5.64611628803828e-07 -8.063710727858188e-09 -0.00011578681067921536 -0.00014944773963655134 0.00016526899933591365
1311 1.6134596255754254e-07 9.837088428304193e-07 5.9290169575045845e-08 -0.00026492583266094876 7.589391148079081e-05 -0.0004871305151927988
2069 -6.301334572904073e-07 1.121356291811759e-06 4.821088101968988e-07 -0.00016115230977668032 -0.0002441511244848836 -0.0001095034019088058
794 -0.00016080640865372714 1.7637546152157317e-05 8.638553248991528e-15 -0.009280170056269669 0.05023078447601688 -0.007432881190948221
969 -9.796999863032718e-08 5.73126235120365e-07 6.902104191715786e-08 -9.588856465925094e-05 -8.236829007725786e-05 0.00020397066002710468
1375 1.813641446321558e-07 7.057191742386783e-07 6.831176639878843e-08 -0.00021515711930848434 0.00020790196165953778 0.00011255692156965355
1692 -4.285522288418568e-08 2.8735401503410223e-07 3.3519705940783884e-08 -3.776739955009429e-05 -6.355833983413871e-05 -0.00010759907945013782
2064 2.1023612145427567e-07 -5.761208884861342e-07 4.925009398552231e-08 0.00016480444784885192 0.00013131021789403204 -7.813477467809387e-05
1619 -4.6687888303712665e-07 -5.71979362186532e-08 -4.99043560360569e-08 4.9078850002628626e-05 -0.0001744653534575286 0.00011132078410548879
1835 -1.1601936844407516e-06 -1.063783629961973e-07 -1.2753175956133398e-07 0.00010488733657663606 -0.0003960094196810045 0.00015817057285607045
1889 6.216177134524956e-05 -6.663004898821486e-05 8.637590361339076e-15 -0.03071986018567626 -0.014397956805254927 0.0026724584930705665
2057 9.053394458251466e-08 5.374606684922525e-07 -1.635322323226958e-07 -0.0002677670873610826 3.4745100571843856e-05 -0.00013148225979433723
1419 -2.4819934092530887e-08 4.419971309244622e-07 -8.376857387894289e-08 -0.00025409266105693736 -1.9268095690157952e-05 -0.0003095116193138868
2084 -2.9006865117193306e-07 8.469499208900771e-07 4.4854697953978864e-08 -5.314398718838067e-05 -0.00017191243833237417 0.0008313947088088643
1330 -1.2338106771396855e-06 4.815248476442883e-07 -1.403526512744927e-07 -2.7260076098077577e-05 -0.000424602780444068 -0.0002781051026283474
1850 -1.197927840724928e-06 1.1409561804618481e-06 -1.9026939459199704e-07 -0.00032191671652015614 -0.0002619254640073565 0.00037834030537066247
1979 -4.160362950794143e-07 1.155768753732595e-06 -6.8198585036222665e-09 -0.000504284129559916 1.86465879762762e-05 0.00011382806554332365
1641 -2.937834330836188e-07 1.5098369750105048e-06 1.6987822274462517e-07 -0.0005409316809144534 -8.27935577286553e-05 -9.51979915344142e-06
2163 -2.1623863356340153e-07 1.3709681166787267e-06 3.1355902344177433e-08 -0.0002615437432879321 -0.00011242391976723147 -5.150242429356619e-05
2194 -9.402808301357762e-08 5.826284035807595e-07 1.765217253729147e-07 -0.00020470701324908352 -3.7058983705916146e-05 -1.514797800275677e-06
1697 9.61639714575946e-08 -4.907984912099616e-07 5.5452833506793964e-08 0.0001214517959326928 0.00014573835563641416 -0.00011268189389419499
1476 -1.9276996861433202e-07 -1.736773584907549e-07 -2.3779234072724703e-08 0.00010389140850302089 -3.706952038625354e-05 0.00034939265603658087
1606 -3.092093710275396e-07 3.043159916752499e-08 -5.3347218922560464e-08 -9.577541707704129e-05 -2.3196230718951322e-05 -0.00013881340485112693
1871 -2.9545141990221887e-07 -6.995545913015184e-08 -5.6738314095710325e-08 -1.5059522398698344e-05 5.290381887968552e-05 -0.00029406248784915906
1714 -2.870941861591381e-07 2.1938520731397685e-08 -3.4974557234276053e-08 -4.598924176764725e-05 -0.00018099708901908818 0.00023153834617786759
1943 -8.871066638251411e-07 7.004933636611628e-07 -2.664227119412982e-07 -0.00013141277809494757 0.00016333112886388886 0.00018049452685569778
1878 3.920484431254488e-06 7.092870659665504e-05 1.3215132475939787e-06 -0.028290685769003236 0.0003695252151950842 0.027962298238917216
2013 5.049663636352572e-06 4.371322477555831e-05 -5.624219801287742e-07 -0.017459019266164975 0.0012131840695936919 -0.03879303182386879
2049 -8.581868199643001e-08 1.0319493096602968e-06 -2.864305965644692e-07 -0.00029444289128516016 1.5981943956233032e-05 -0.00045716843532172977
1665 -8.610454553980665e-07 1.1779554893672578e-06 -6.834577525540054e-08 -0.00018942032066017052 -0.00023049551715005528 -0.0004093838830614182
1773 0.00012941683542915598 -0.00033386509928634046 -7.265192671010568e-15 -0.05196149049655065 -0.04907138205155681 0.9476163312607715
1997 -5.801298567910013e-07 2.764878507648888e-07 -4.2902402549039125e-08 3.265858145491858e-05 -0.00027787033476099697 0.0001473726247817299
2014 -2.492390037177111e-07 6.407914437928215e-07 9.636954744526998e-08 -0.00020532880813447794 3.921451026330217e-05 1.2082723859360395e-05
1139 -2.6814712647989413e-08 7.872421763845829e-08 6.044578686344456e-08 3.284681689538273e-05 -1.0254949683086383e-05 -8.425358663737021e-05
1849 5.238021540697741e-07 -8.70782927408677e-07 -3.0559993006257315e-08 0.0002096189873973107 0.00023934500250592127 0.0003658271712522597
2191 -2.9522239742654988e-08 -4.512151305425422e-07 -5.8891816024645234e-08 2.8386541048945825e-05 3.1357652511540505e-05 6.635891897472535e-05
1959 -2.1054542875991834e-07 -3.2339183566544467e-07 1.5128507576944015e-07 0.00028236618237563525 -5.063428169459154e-05 8.174850765828369e-05
1684 -6.340211068686118e-08 5.5677837648597634e-08 -2.2296212888222462e-07 -5.127281980456102e-05 6.509116464467721e-05 0.00011975680857082393
1830 -1.6851778451130928e-07 -1.5342678853994612e-07 -5.683785185155405e-09 7.596374545314217e-05 -0.00011431191850783425 -0.00026378383295717835
1846 -4.970759217924987e-07 9.931883689373807e-08 -1.4305932091760546e-07 8.406486607255911e-05 -0.0001703923264451905 -0.0004289632936626925
1336 -5.084977031525653e-07 3.013502197509253e-07 1.8311711583671984e-08 -6.132879463079425e-05 -0.00011238346580363744 7.422117483683611e-05
1622 -2.5092825687210386e-06 1.146934723396294e-06 -1.3094491935189447e-07 -0.00035721899810972445 -0.001023238684938627 -0.0003241026685897059
1963 -1.7407748387707834e-06 1.2168948319639435e-06 -1.2053125960036604e-08 -0.00041612961992191773 -0.0006321186067330974 0.0007468257305639151
1847 -9.774960222930463e-05 -9.401422530147757e-05 8.6375918149012e-15 0.09367542748879835 -0.06025522258778021 0.02572815853300791
1636 -5.939103501011692e-07 9.88178555579532e-07 -4.8961054950136876e-08 -0.0003222820638651794 -0.00012545750042812647 -8.648001050927905e-05
2059 -6.991860748267196e-07 1.5881314671498277e-07 6.903351480595719e-08 9.010090300625256e-05 -7.838224266086607e-05 -0.0001907847679240553
2125 -6.704037333178979e-07 3.8645290006725924e-07 -2.2357958134858363e-08 -0.00018578258572938573 -0.00020720278293064935 -9.61950660610857e-05
1749 -3.804988662047627e-07 -2.280771093725289e-08 1.3664022097238844e-07 -3.460280310888521e-06 -6.136708075393458e-05 -0.0007521781235616023
1865 -7.389576436380909e-08 -7.930438371007934e-07 3.8616182801550135e-08 0.00023953027473081148 -5.183065542521507e-05 -0.0001478759600431858
1875 -7.650784115847182e-08 -4.2926501423562783e-07 -5.7967640572437774e-08 0.00010110851072882285 -6.168938868511637e-05 5.105565232066544e-05
1779 -2.5667562034662747e-07 -5.9355746422191314e-08 -5.348155295504235e-07 7.76987683336376e-05 -0.0004366992963503867 -0.0002610942259674663
1377 -1.1861024949287339e-07 -4.222989993237667e-07 7.252398551195314e-08 -7.160453101946653e-06 7.920292954968253e-07 5.5467662247706946e-05
977 -3.8727492660588746e-07 4.517062221793003e-08 1.8297150416806047e-08 4.050012741351634e-05 -1.7039756495650252e-05 0.0004078831067438199
2028 -4.972889107973338e-07 1.5352356593961977e-07 1.577672416487803e-07 -0.000124588217938697 -0.0001682743292333838 0.000280049392706043
2009 -1.0533516197748328e-06 4.3567130945660737e-07 7.063866367039231e-08 -0.0002285256335632757 -0.00014003994944173154 0.0005299824367687175
1696 -1.2705730767982065e-06 1.4493703448643972e-06 -2.2533007474739295e-08 -0.0005620262147088507 -0.00033212428065057526 -3.2454323380263185e-05
1673 -1.3136332090207717e-06 1.3546946634917049e-06 8.637293343612041e-08 -0.0005387253069871253 -0.0005286056760546474 0.00033591059007117316
1923 -1.1090737529993987e-06 1.3876514579780093e-06 -2.4461838396339182e-08 0.0005003669048123551 0.0005943509050836812 -0.0004357577045622055
1928 -1.8397733934907903e-06 -3.7025534357358173e-07 -2.3704205824901505e-07 0.00016632907555674183 -0.0005004875365472576 0.002035258459513485
1732 2.046129107560545e-07 1.7078984315603874e-06 4.3629569676454626e-08 -0.00045943562245492686 0.0001603302995918129 0.00018446990498928906
2154 -9.886628168110956e-07 1.0077685355283453e-06 -3.7666152875854534e-07 -0.0003650594302105113 -0.00027383054634035466 -0.0005849420167936294
1700 -1.7003226273884388e-05 8.332044427019054e-05 -7.265196618057134e-15 0.3583246499097073 0.31729591386724293 0.02779185336155149
1653 -9.721276526272005e-07 8.190639891221801e-07 3.482596516493285e-08 -0.0003501758118482806 -0.0003375886994849185 -0.0004746518768138704
1674 8.068728953222005e-08 -4.613931195030586e-07 1.2546124591467568e-07 2.5969626025410938e-05 1.5246060210979622e-05 -7.308031377540781e-05
1626 9.40785264635046e-08 -1.1509581640340304e-08 -1.096640253615978e-07 0.00013054292085463526 0.00012671381932261285 0.0002317051058804304
1676 8.742398921292021e-08 -5.892498627639522e-07 8.940017447657617e-10 9.97952005238337e-05 4.621889569103828e-05 -0.00011521759007284033
1624 -9.505570844314068e-07 3.3670942341002025e-07 2.6310933507366765e-08 -0.00012272238061502384 -0.00037869368680572415 -9.971513133762943e-05
1836 0.00022408038540230852 -4.7411937946038475e-05 -7.264230834418654e-15 -0.17350778751790305 0.11078395044512865 0.005213447795659746
2026 -1.0119273907098547e-06 1.3644663639554156e-06 1.146089889480725e-08 -0.0004888351417913637 -0.00016069954064909178 0.00036124234153722543
1701 -0.00014585636957913675 -0.000148757270228245 3.4378042996441768e-15 -0.017300825724285263 0.05208204619921123 0.04159000417292114
2124 -2.730819513620661e-06 1.6690487108199742e-06 1.6510606047582997e-07 -0.00046207632232333546 -0.0010786038319991038 -0.0004637440986007959
2089 -1.1143475677591534e-06 1.0556938172919954e-06 -5.408993364578172e-07 3.4179771340032156e-05 -0.0002531606217580222 0.000292744924305411
1623 -9.941547954724159e-07 1.2424410523697638e-06 -1.835494048092819e-08 -0.00040259885244163014 -0.0002861470595122308 -1.41580193794285e-05
1770 -5.729855303172196e-08 -2.093397183190484e-07 8.909407497371458e-10 -7.923275810183678e-06 -1.4049300383306547e-05 8.138848184561602e-05
1683 -2.977079616108778e-07 -1.0893230136521695e-06 -1.0024241902083662e-07 0.00021228387653310043 5.580459940067164e-05 0.00038841310783019854
2132 -8.625454622387939e-07 -4.3946994710425543e-07 -4.867198511255108e-08 5.9491397941191525e-05 -0.00037754931125152344 0.0004898463159428035
2140 3.6247966293823906e-07 -6.415532440012365e-07 2.923342827687322e-08 0.00018878756773775746 0.00013821303433668095 -8.588670656972615e-05
1446 2.8668780735833323e-07 -6.709575626721039e-07 5.941114359355248e-07 0.00027342482454016534 -0.00013270478695830363 2.086872344013392e-05
1903 -1.662835234639586e-07 -3.6320425259464025e-07 -9.874608460681422e-09 6.956274641621559e-05 -3.846998803350415e-05 0.0004979964936293389
2177 -1.1119700933881496e-06 1.2140480922232962e-06 -4.358174922226371e-08 -0.00039879247287076444 -0.00025211721723805816 0.00013685740189575007
1289 -0.00017504393513314374 6.618483576765306e-06 -2.9860734643896703e-15 -0.06870477972037257 -0.010341451335719634 -0.07049030441932283
955 -1.500374968828373e-06 1.47685372106234e-06 1.38457481130497e-07 -0.00028925340907989545 -0.0004362570293198277 3.841113844210708e-05
2188 -1.0981341923010944e-06 1.4165724444846624e-06 9.958882877987912e-08 -0.0003594307880902128 -0.00020862813792166192 0.0005485231513820363
1368 -1.2826511446308609e-06 2.8392162187186787e-06 -5.764235255493288e-07 0.00028445998433874347 0.0003985604047109887 -9.666120316882855e-05
1799 -1.3706792696380453e-06 1.4039472695966302e-06 -1.5692417866593945e-09 -0.000443372559658257 -0.0006708742273116814 -0.00028531131807275743
1459 -4.00912322584571e-07 6.530653322796516e-07 2.212220847568884e-07 -0.00018566403994367783 -9.342007040462108e-05 -0.00023552305660824716
1964 -3.4622511694933755e-07 7.401579482877649e-07 1.7811964338335447e-07 -0.00037712690950384136 -0.0001460307489879344 -0.0011957857399504306
1507 7.862066336300158e-07 8.565460148968103e-07 1.7992427220613732e-08 -0.0004905879878892756 0.00036409019173240384 -0.0006514731586261339
1815 8.256954637801525e-09 -3.765202540406534e-07 -5.582682387620235e-08 9.4702115709859e-05 3.252431548680391e-05 -0.0001594706722268784
1848 -4.5182863239033783e-07 -5.08733832348709e-07 -1.1774152857295809e-07 0.00016295836075945987 -7.22745939537147e-05 -0.0003681481637340079
2156 2.8212243248174715e-07 -5.813821145111966e-07 5.502638939597503e-08 6.602597713740249e-05 -6.965554553675138e-05 0.00012509899395686752
1614 -6.859891090516159e-07 1.47615016985806e-08 1.7004039363061287e-08 0.0001511617639467922 -6.785729622283899e-06 -0.00012744804291193605
1822 -6.862723631302784e-07 4.5577877051455325e-07 -2.1931660659277542e-07 -0.00023659404155976094 -5.9514459256432274e-05 -5.54572092315365e-05
1832 -1.2782973175361443e-06 5.912867940098035e-07 -6.655570596839054e-08 -3.958666863024756e-05 -0.0003928681465213777 0.0003337777021269892
1638 -1.129564212540155e-06 1.1651109448374928e-06 -1.047868869555189e-08 -0.0003833714200743437 -0.0003582304901674458 0.0005108770772742808
1856 -1.2122211797007432e-06 1.3364463721679932e-06 7.229690220457267e-08 -0.0005740739610882167 -0.00034934202743466797 0.0005807612119184968
1592 -3.8612000380695895e-07 7.243267639604523e-07 -9.935685840998542e-08 -0.0003137665596010732 -0.00012876883447617192 0.00027123302586206554
1720 -6.004937166130872e-07 1.0242099561041122e-06 -9.938786255646563e-08 -0.00021465197722048729 -0.0003012715562139761 -0.00023150344112770962
1433 -1.8208813567161695e-08 1.9892954090294606e-07 7.509473264962267e-08 0.00016887906405925747 0.00010394132468726832 0.0008833130208634515
2077 6.073678721812247e-07 2.608951653315722e-07 8.581469810534481e-08 -9.229374712462315e-05 0.00021610962784525547 0.0007860202193664561
1273 -1.3581376990082611e-08 -4.810633191061481e-07 4.6518226331632926e-08 0.00021155698491823497 -5.061389693138573e-07 0.00019161744503286109
1841 1.2699957019104528e-07 -4.066716979834541e-07 9.401866154738217e-08 0.00010726195091741733 4.142051382915243e-05 -4.547255054001618e-05
2112 -4.3295506593483625e-07 -8.329005324711221e-07 4.8727546620742926e-08 0.0001560016956340362 6.169490712889863e-05 0.00023496001056376618
2016 -7.516400114052197e-07 -5.598099300793946e-07 9.843283278123351e-08 0.00020859475833043218 -0.00035969713541690455 -0.00037311317451506576
1837 -5.326184656558111e-07 1.19698302061989e-07 -3.7020849250224616e-08 0.00011665354847603843 -0.00023578898925479837 -4.365412601974266e-05
1823 -9.231005934711199e-07 1.6336564584936704e-07 1.4170737673169437e-09 0.00012978225897714084 -0.00011376760580805156 -0.0007159564955241239
845 -1.4212373491107744e-06 1.343044748003527e-06 1.4643879008702593e-08 -0.00037538338507697093 -0.0003800889598074209 -0.0001151180715449944
1232 -1.0531321870607586e-06 6.756413628312602e-07 -5.699645965757787e-08 -0.0003255194486101096 -0.00032091926883070154 -0.0005525006710263343
1974 -4.2294782247478844e-07 5.529762280768065e-07 5.534747196291914e-08 -0.000223588706570797 -0.00013981746453359706 -0.0002929289880784436
1810 -8.9901955894216e-08 5.232458868282413e-07 -2.082040213118069e-08 -0.00033351838830598805 -4.506714354997203e-05 0.00015605702192989169
1862 -3.8551473579015933e-07 2.6631516744924956e-08 4.7564127156588735e-07 -0.00029166893061844057 0.00010436361437335265 -0.0005645769065575899
1908 -2.862644940783275e-07 1.0850675711869034e-07 1.346914064713683e-07 -9.423451955645769e-05 -8.805590006911627e-05 0.0005166598885477085
832 4.516002702941266e-05 -4.910840275978384e-05 -1.6031646686532008e-06 -0.024279197794656104 -0.003067497132684629 0.01051433525121689
2139 -3.106378540902908e-07 1.5052555735032247e-06 1.2811634571147926e-07 0.00015415211962705198 0.0003247989118289551 -0.001675789926606305
2161 -6.768898652811241e-07 -9.94569872940546e-07 -1.088434224465525e-07 0.00040216832412567167 -0.00021614857063833462 5.327567792872416e-05
1911 -9.666427525436247e-07 5.799051072941263e-07 -1.0743875595569484e-07 -0.00013867240645709466 -0.0005038121264279723 -0.0007967364359669122
1480 -1.68893450209662e-06 1.3073411937969176e-06 -3.480021344087692e-07 -0.00044725554759307616 -0.000689501455866295 -7.983749389644974e-05
239 -7.13446656441771e-07 2.3016738662478375e-07 -8.254838507747173e-09 -4.605272618219492e-06 -1.7240148281868274e-05 -0.0005436175220916783
1983 -8.564551274423649e-07 1.052182399930273e-06 -7.108510279511178e-08 -0.0003444026338218177 -0.00028337221749866084 0.0006771635092315535
1501 -5.834385835105742e-07 6.304254277557285e-08 -6.476565490445166e-08 -2.6741913060977168e-05 -7.235076957301338e-05 0.000341451578296596
1154 -5.47172209855545e-07 7.779290560663749e-07 9.581853337746318e-08 -0.00027819400052863757 -0.0002296864601150873 0.000479890113729854
2078 -1.696386884188259e-07 9.690735777688437e-07 -1.7529279799163288e-08 -0.0003638439822599089 -7.565412037885698e-05 0.0004336527172360872
2020 -2.1413122879315164e-06 1.5588008496682673e-06 -7.529165439340411e-08 -0.0006324511673539135 -0.000898348017361434 -0.005518996133384662
1221 3.344784350308625e-05 -2.3818702581759547e-05 -7.264238213410228e-15 0.029028964515845527 0.01923153339878032 0.002179654196501333
1937 -4.089429749747216e-07 -1.0544687831640078e-06 4.4582592234002876e-08 0.0003772340189099729 -0.00011713189096577615 -0.0001488221043371653
1727 -1.0282429014117243e-06 2.0281385448909534e-08 -1.1215894482819327e-07 -0.00014939342740217615 -0.000389426502114598 0.000490822091209405
1746 4.51815018004826e-06 6.25201469917164e-06 -7.598415400714671e-07 -0.0018796530801049051 0.0010953469633016798 -0.00023254272676705954
2111 2.9489657533508426e-06 1.1056418019536604e-06 -5.506430148476294e-07 -0.0006489888782377879 0.0001685092461058634 -0.0009237521478726122
1742 1.944627579070239e-06 3.76716758599497e-06 9.157487963819443e-09 -0.0017204794070081813 0.0009403240844945591 0.0028654684070771644
1725 6.304084532316313e-07 -1.4509333788152658e-07 6.24814780780976e-08 0.00019935655845240003 0.0002153380825839513 -0.004560173474771471
1011 -8.583141550614081e-08 -2.168707815077842e-07 5.3704366482018266e-08 9.458478780250718e-05 0.0003959631011839268 0.0004342357081147695
2010 9.06196728397411e-06 -0.00011954317226982891 8.637588655348671e-15 0.03525396903489428 -0.014011076394282118 0.023477259707450293
941 -1.6304757368730156e-06 -1.7685916571921192e-07 -1.380882017803293e-07 8.734396889728743e-05 -0.0006586879961805268 0.001266229786692867
1353 -8.940978113664355e-07 5.26114982373014e-07 -1.9251778558462406e-07 -9.463913033307785e-05 -0.0003107059365694769 0.00038270584453758673
1633 -6.764482388035513e-07 7.358551589568888e-07 6.747035355407765e-08 -0.0001655786211559098 -0.00011215074033826295 -0.00034180554792502337
1768 9.653273929789769e-08 4.7578768928250463e-07 6.21294379721834e-08 -7.617437079337779e-05 2.7668720277352415e-06 -0.0008641017254498181
981 -3.0299653581760377e-07 2.503848734217704e-07 6.566563507413452e-08 -0.0001731173871190691 -0.00017486980967757658 8.06070979100202e-05
2149 0.0004338182183222018 -0.00015897029631970017 -7.26519541134206e-15 0.24462820579127834 0.11028041746251253 0.16477431635758252
1616 -1.056456723879709e-06 -1.498478135250071e-07 5.5867508571755554e-08 -0.0001621052820140218 -0.00039871542363920727 -0.0007784281324690631
2162 -8.445386113601405e-07 -8.014760790438355e-07 -2.9676222381864113e-07 0.0005226902595321111 4.9761650257816864e-06 0.0016849215487729527
1869 -2.2268511710965984e-06 8.252553517706986e-06 6.517892845263499e-08 -0.0032905067745588267 -0.0010001394478599945 -0.004235857922243469
1948 -7.113571079517712e-07 1.8783288256675004e-07 3.3561595698134944e-10 -0.00016445692959562815 -0.0001728488823693999 0.0008993746563537697
2054 -8.936849377703414e-07 8.153424611786446e-07 2.418307452636158e-07 -0.0002778617765660548 -0.0004259062636186272 0.0011254056298762433
892 -2.549711069029042e-06 -3.433669958807472e-06 2.6459156891173794e-07 0.0015215621882024158 -0.0008856597000095355 0.0005013380151705298
1389 4.328205504263081e-08 3.9699421975922254e-07 1.9793728224527173e-07 -0.00027463255146620015 9.02023249860712e-05 0.001013768304591345
2018 5.2180976729915834e-08 6.155175914626664e-07 1.2555642912872506e-07 -0.0001830831992354286 5.713023565182394e-05 0.0008174849265084272
1030 -4.8239696309514306e-08 1.2565129396326884e-07 8.501064858966813e-09 -1.6810309579410308e-05 -1.9203730247106835e-05 -7.38579215517681e-05
1936 1.1903794470340407e-06 1.3079832969138812e-06 3.548865677513705e-08 -0.0005056946667065648 0.0004832377348049129 -0.01196012326886212
2115 -2.3925543421450683e-05 -6.019417463031947e-05 8.637588995185887e-15 -0.07587801887938912 0.015051676653345445 0.004188373056422534
947 -3.357902939512417e-06 1.0995887489110914e-06 -8.888932604570622e-08 -0.0004380101093086508 -0.0013143484092425766 -0.013050997080995044
1060 -1.3642264349364361e-05 1.3203805041363942e-05 -7.265194788164651e-15 0.04908275601190433 0.037146646113404125 0.04969726602768054
2024 -4.492934609167363e-07 8.176153295414348e-07 -2.267029695985587e-07 -0.000241682680215393 -6.401796020702791e-05 0.00018859931242607336
1977 -7.901238074863863e-07 8.315211928718923e-08 6.93154170483539e-08 -3.635262452993169e-05 -2.958983669463884e-05 0.0009009319799407037
1406 -8.883930411442763e-07 2.775850806011106e-07 -9.49961751739124e-08 -4.756488443892526e-05 -0.00012591245442958806 -0.0007951823674873247
1067 -5.051355812700205e-07 2.685974246287064e-07 5.798856434498115e-09 -0.0001388532011276827 -0.00012152953880049464 -0.0004303589347380163
1225 -5.258025055634172e-07 -3.428213016615771e-07 -2.2661467930726678e-08 0.0004370919022002898 0.00010435565172173718 0.0003422765335264506
1716 -6.536868752070608e-07 3.067307355255104e-07 2.6472015935533446e-08 -0.00017395670713181452 -0.00028012438351880165 -0.000191896241503657
855 2.6401622007178047e-08 -1.774400305555374e-08 -6.5463211160936816e-09 -8.306475552189275e-05 -3.4058774005453643e-06 5.6078089573663774e-05
1147 -8.595571076710746e-08 8.702981342122776e-07 5.688353552879213e-08 3.6287376876354726e-06 -5.1349229950471986e-05 -0.0008002281047907998
1378 1.452869270865278e-08 1.1007112699933989e-07 9.790579633057179e-08 3.160983596220032e-06 5.9850537775247346e-05 3.4909266622390114e-05
1958 -4.4659697535300275e-09 -4.661905983924469e-06 -1.5577890345371553e-08 0.0018223830398209596 -3.114541920154988e-06 -0.0017438899740329443
1081 5.460071264993526e-08 -8.856066030725982e-08 -2.366560332895104e-08 6.692367508875846e-05 3.921240048212119e-06 4.871467669260073e-05
1750 -1.1927339967851516e-07 6.240233943072307e-07 -5.545929409836938e-08 -0.00027491089469930575 -4.7998822375149766e-05 -0.0002664429807769899
2002 -1.12661365651411e-07 2.44101100388881e-07 -7.54303939898916e-08 -5.515579900295638e-05 2.490069473992137e-05 0.00014047494614964309
1713 -1.7140584009056746e-07 -9.95540366420003e-08 -2.8110742007307363e-08 5.120478623243118e-06 -1.8021155389710684e-05 -0.00025678576102126395
1791 -4.240582282674227e-08 1.7364581287259216e-07 -7.904709376416501e-08 -3.735628215479272e-05 6.752660767047913e-05 0.00025126987549839257
1043 -5.728997658992441e-07 1.553432594292949e-07 5.72183184294409e-08 -0.00010591878324022819 -0.00024136096482884936 -0.00020205684141613207
999 -8.794954557029835e-07 -1.1351580755765528e-07 -1.1528638752043444e-07 8.182409569931908e-05 -0.00024749688163190755 -0.0006228961412273982
1952 -2.679047720892612e-07 -1.1167104254584254e-07 -3.3782756330370567e-09 -8.613764026768068e-06 -6.303412460812982e-05 -0.0022366790117034864
1652 -4.908642063151418e-07 3.10770005198468e-07 5.515088499083681e-09 -0.00016704648559461786 -0.0002131241938763308 -0.0008848687431689502
1309 -2.755355395481165e-07 -5.061376741250507e-07 3.3066872329128005e-08 0.00012957395877922245 7.905750491655513e-05 0.0006257778753053217
1885 -7.427593403667087e-08 2.9732619838024956e-07 -1.184746875798181e-07 -8.058556570199537e-05 -1.2789383494560394e-06 -0.00024218931361308715
1218 1.539202430422218e-08 -3.040972945493029e-08 -1.571269848952274e-08 2.5434010542254197e-05 -7.705422829173195e-05 1.1668299390307534e-05
1432 1.8316167119425076e-07 -2.8039779511077724e-08 2.596081134151948e-10 2.7436019060515718e-05 0.00014692061503193186 -1.861333547438044e-05
1787 -1.203126408264804e-07 8.319688012248604e-08 1.718942596620455e-08 -3.6406776426554516e-05 -5.174413090183492e-05 -3.752120964601409e-05
868 -8.094487072979146e-08 7.624988983732009e-08 3.743963880943845e-08 -6.26968541586797e-05 -3.0349919659018444e-05 5.9983832809263146e-05
1975 1.4264386114203942e-07 -3.0172123321686594e-06 4.253762725488507e-07 -0.016790855551855315 0.00030476143234124014 0.013332937545475456
1157 2.0720937479881959e-07 -1.3575076203679375e-07 2.2931351507681008e-07 0.00013093963422414857 -4.24477120208557e-05 4.0499238198632124e-05
2129 -3.171785561049152e-08 -1.243707914718587e-08 3.1128856349027104e-07 0.00012285721412042767 -0.00013839070339410697 3.817181419273189e-05
1505 1.9410755462921168e-07 1.3463101269931613e-08 5.4843917558798436e-08 -3.139849984902759e-07 5.166528061579253e-05 -7.363076048357234e-05
2043 -1.256748400949554e-07 1.016393526511181e-07 1.329105215330201e-07 4.704351672555244e-05 -0.00032217182970774804 1.0879455073022084e-05
2105 1.70004709913499e-08 7.868320641901628e-08 2.562518826158828e-07 1.0566853018978312e-05 0.0003000189159520407 4.5400120745749295e-05
1241 -8.499156861420522e-07 2.779620478432357e-07 2.630971431921097e-07 -1.9968831665511634e-05 -0.0006951083088565158 0.0002646847763083995
1543 -2.927547943499358e-07 5.856709215222632e-07 2.1947357850753762e-07 -0.00023053199425884807 0.00012909242404243612 -9.13957418792817e-05
2147 -6.983459093883295e-07 1.396902965787186e-07 1.8132874001977515e-08 -4.445624749354599e-06 -0.000172006596612375 2.4764997567732767e-05
914 -9.554915355080113e-07 -4.230076746374863e-08 2.801741110494772e-07 -8.492342316057007e-05 -0.000822298955526897 0.00036974567077363525
1448 3.3741550171141545e-07 -1.2200392414093384e-07 -5.761075415477381e-08 4.1934226359975925e-05 0.00014522211834603702 4.845886191648756e-05
640 3.759492914816088e-07 -1.5345051436197971e-07 -6.3261055375503e-08 -0.0003384268717627061 -2.936723585434313e-05 -0.0001627493888730288
1463 9.720970064001228e-07 3.8954023363671787e-07 -6.90146027049803e-07 5.387619075482224e-06 0.0004608078863164856 5.725538944858534e-05
1699 3.142228741866504e-07 5.5420668708874175e-08 2.8179382188423548e-09 -0.00016359263555788632 0.00012423853370715175 0.00020524410691637955
1931 3.155221216207669e-07 6.955165223100986e-08 -1.4022334126558868e-07 -0.00017955111808473 -7.623250728164895e-05 -0.00011295748749967464
1271 1.2486489094354766e-07 -1.0812549573429765e-07 2.474434799297148e-07 -3.551938276735214e-05 9.085485352362181e-05 -9.316453521017093e-05
755 3.871266269717671e-07 -2.850340817367136e-07 2.587495387906824e-07 -1.105146492195007e-05 -3.2335574339278374e-05 2.0867886845467927e-05
2063 1.3266111403971711e-08 1.6966850339753628e-07 5.169368041387514e-08 4.0491740277413055e-05 -3.609851849594107e-05 0.00010892509022633655
30 -1.8596897740726495e-08 1.218511365802033e-07 2.391015641688112e-07 -0.00033032100932186035 -6.980321726001478e-06 -7.312985558325927e-05
1679 -7.8585649298323e-07 7.063598046871271e-07 3.062398412287404e-08 0.0005127475657131548 0.0006401247754853783 0.0003589790075772077
1287 -8.372268060860195e-07 5.896736957937182e-07 -7.289477614955801e-08 -0.0003186000786383821 -0.0004353035041362733 -0.0002478218744399683
2029 -6.066243452482287e-08 6.297000764627445e-07 3.323363725589981e-08 -0.00030361898974029094 3.066926760616255e-05 7.603416872277243e-05
182 3.3942413869441707e-07 6.88018460750399e-07 8.136006343034647e-08 -0.0002988783009106469 0.0003243492865874522 0.00046969758470256717
1352 -8.156379657746075e-07 1.4025765136878988e-07 1.068284189957e-07 1.7013321700980543e-05 -0.0003798479838681565 -0.0003994445808312591
573 -1.5089917453071654e-06 3.0198955564288985e-07 -1.6880812140622506e-07 -5.710242527226848e-06 -0.0004976331892229939 -0.00027303503786696887
913 -1.693686030063761e-06 -6.251177301644277e-08 -2.26831402835558e-07 -3.3729516287749154e-05 -0.0006244601041925106 0.0002649033872573813
2047 8.206991514344568e-08 -1.1333691732043086e-07 3.545714300195396e-08 3.5832472660202034e-07 -2.711909188946192e-05 6.816489063421468e-06
1584 2.3142123217684294e-07 -4.129741647074743e-07 -1.742251503267108e-07 0.00033446690564883886 4.6838923565220125e-05 0.0003826668064942961
1752 2.2219203424522083e-07 2.142231105253323e-08 -1.628773818484788e-07 3.995397392252357e-05 -0.00018115693548283779 0.0002874491331815954
1151 3.158379319813522e-07 1.3233726084923766e-07 7.644092458124816e-08 0.00013353014126769942 5.070808102200876e-05 -0.00023574946122446533
2200 5.214913445473677e-07 2.9674873458624618e-08 3.2827989273472105e-08 0.00014160098016279175 -9.157823272411412e-05 -4.086451196651963e-05
1160 3.7493172724146337e-07 -4.9031474866408465e-08 8.285625791417614e-09 -7.993623049764913e-05 2.220286285542715e-05 -9.097897957289762e-05
1604 4.1941098702107916e-07 -2.601392809323028e-07 -1.992571691227944e-07 -1.2405397076430138e-05 4.425107452107489e-07 0.00010030584803219163
1532 1.1712566138549527e-07 3.1157885297378757e-07 2.5947867893383933e-07 6.587635778359983e-05 -3.9843962098664894e-05 -0.00021294732286305918
1340 1.2282761365817312e-08 1.2890805594265033e-07 3.960394395913163e-07 5.279397954618804e-05 0.00026786322601482954 0.00021433585944705707
937 -4.382261314912524e-08 1.5034494356092985e-07 -9.68741358983098e-08 0.00021692571477552425 8.0296236333136e-05 -1.927197992593321e-05
247 -5.3418779950367144e-08 9.097284316121422e-07 6.842772037022741e-07 -0.00020701560001056736 0.00046314924629901633 -0.0008012228113641979
1514 -2.0908432561911645e-07 7.363639970659081e-08 3.768223032201226e-08 3.93329327946516e-05 0.000103867804440152 -0.00012489731463996115
1802 3.6170413998209833e-07 3.5057926607276187e-07 -4.1540683868550636e-07 -8.3525093776188e-05 8.541233882119514e-05 -0.0005045868744456833
1760 -1.2109598244526317e-08 3.4326697498527816e-07 -7.565141909981496e-08 9.827686056809957e-05 -0.00039867362027901033 -0.00038762831630731156
807 -2.0634317515512414e-07 3.213213498977446e-07 -2.3003857506903563e-07 9.097335215919112e-05 -0.00022571549620080332 -0.00013056566560823535
660 -3.455004131041762e-08 -7.910379031361428e-07 6.341852518905672e-07 -9.56090740112481e-05 0.0003031194504948911 0.0002715722549612896
1681 -1.8665673827743916e-07 -3.740841603411384e-07 -1.3665106005875031e-07 0.00036711816577529566 6.093846986395391e-05 -0.00036607081302108803
1777 5.8613680858904096e-08 -9.853750844500789e-08 -1.333380139631141e-07 -5.602180286371794e-05 4.652094069421986e-05 -0.00018960859344202053
1946 3.801450964713134e-07 -7.147224173980975e-07 4.4749694174296566e-08 4.505117914794005e-05 -4.33827778905559e-05 -0.00018452254878148527
806 5.95260067111103e-07 -1.664569282152795e-07 2.4958894444971444e-07 0.0001563777058450212 9.123287866804106e-05 0.00011126856839398396
1646 6.125222257384715e-07 4.42838250891951e-08 3.604304748241398e-07 0.000205093532007881 0.00017584685143401477 9.24265864309311e-05
1148 3.6158805505336957e-07 7.57380026069549e-08 5.387296853979203e-07 0.00013023363294005917 0.00019672335389424357 4.9510137619129734e-05
1944 3.560263966506248e-07 4.3422991617805443e-07 6.54224216568289e-10 -0.00011771533624137306 -5.8655097766231796e-05 -0.00015328274528040022
965 1.8645206976280142e-07 1.1238178771364772e-06 -1.6645346452681527e-07 -0.0005011930686114362 -0.0002153796576473571 0.0005650728190317453
283 -2.2841148609029452e-07 2.826567057090583e-07 -9.74929279329233e-08 -0.00010215494239085616 -0.00017518294358916646 0.0007586679572674145
184 -4.1369458098539333e-07 3.2766998884477606e-07 4.798505460848554e-07 0.00017595543932269762 0.00023339575746990037 0.0002590637219491846
1170 1.232502862880748e-07 4.3434478878237205e-07 1.3755512164016038e-07 0.0003311597280979603 -0.0003411201721586918 0.0005606603748165845
693 -3.943878692363138e-09 3.8197585806938025e-07 8.20929532453881e-09 -9.945994022127251e-05 0.0002953375978583406 0.00019055517346026972
792 2.0912518038459463e-07 4.2060550893612373e-07 3.027412185098414e-07 0.0001351434890007308 4.0292011575605586e-05 -0.0003178110302272697
1568 -1.08288569835794e-07 -6.128332784849721e-07 3.744572662646348e-07 5.5816727639910126e-05 5.328260966659626e-05 1.447918825110682e-05
2181 -1.7718309086445656e-07 -2.5862116136967646e-07 2.7658792437564223e-07 0.00011225268845572262 7.671048068191473e-05 -0.00016433931850953168
1062 -1.614998061427649e-07 -3.5835474264114266e-07 -3.564746538084796e-08 -2.7674939512845146e-05 0.00013546710862860935 0.0002870633760641333
1950 7.62350557271825e-08 -6.144222810116063e-07 2.349758474806303e-07 7.916023459360543e-05 -5.1637897162297036e-05 -6.779464490344373e-05
1308 6.138773150321068e-07 -6.714978136299322e-08 7.652098739971484e-07 4.969741666664867e-05 -0.00017431549637067262 -1.658077972506312e-05
1008 6.548203813244475e-07 -2.3621411262116545e-08 5.76542338489435e-07 -0.00030776033412992655 0.00015976934760195957 -5.585440250130887e-06
28 -9.257868872528713e-08 -5.777126738525226e-07 -1.6019830963824473e-08 0.00016641958307253368 -0.00019579260140244114 0.0004046600057385113
2146 3.189309489837099e-08 3.0628842391496755e-07 -9.749977672618939e-08 -4.873782480819702e-05 0.00019154990471960878 0.00015418853654768476
1577 -1.1309465556094069e-07 5.121733777700282e-07 3.316991859995291e-08 0.0005738941472576362 -9.729465671564663e-05 -0.0006397537764027144
1703 -3.3657891645753766e-07 5.280133760454654e-07 2.018000050521535e-07 0.00019991456805411464 9.247194282203186e-05 -0.00018962039191249306
1422 -1.7540321509672027e-07 3.201585830125258e-07 2.9878526878860623e-07 4.6347125222389995e-05 0.0001295656529343675 -0.0001086800639757647
1294 -5.326839400979027e-08 7.019222226995614e-07 2.2582949448566926e-07 -0.0002540196438170566 0.000429450001734889 -0.00042661529532368335
629 -1.1194082188402025e-08 -4.133965905874825e-07 3.3424784283579205e-07 0.00010020383463610946 9.489861006992855e-05 0.00022087012318126008
880 -3.0067842261764366e-08 -2.649149620941747e-07 3.599276238621188e-07 -3.3838186353763885e-05 -8.254334058576573e-05 -1.5062802892667943e-05
1915 -3.0911382071961286e-07 -5.627866721239531e-07 1.2585586569986476e-07 -1.5296064187063675e-05 0.00011375159687949784 -0.00016260469978210366
2120 -1.3441666531485272e-07 -7.850049800018815e-07 4.996023820237976e-07 0.00014921716187485802 4.692112979181963e-06 -0.00013025465365670627
1405 -3.546992237676543e-08 -6.995033196042675e-07 3.92147672854833e-07 -9.904309505337146e-05 9.700864174177791e-05 0.00013631886084051407
1766 3.2455767383875957e-07 -7.379116151308446e-07 4.951031720916419e-07 2.2059860176717564e-05 -0.0001278769035025902 7.27082220573062e-05
2052 -2.5630814855538756e-08 -3.9270629022235056e-07 4.7412893782251396e-08 -0.00034672774755143066 3.389438682746214e-05 0.0002502055258025052
1881 -2.5118137535956894e-07 2.812211113623679e-07 1.2217369517144937e-07 -0.00034548239187078114 8.560000588741474e-05 0.00036616769344225217
1895 -7.016555083988499e-09 3.8778126184427746e-07 7.396647693592141e-08 -9.830143791485063e-05 0.00014806875323256942 -6.501823999904008e-05
1394 4.9222558913543054e-08 5.629238303959717e-07 6.43346930705694e-08 -0.0001274172739724259 0.00014620925233566553 7.569339364409629e-05
1223 -6.208948429666613e-07 8.382004669058163e-08 -2.058530259224528e-07 0.00019960965189821708 0.00012000797062104787 -0.00046295129475713116
595 6.352772515717477e-07 1.407001573078188e-06 -3.5507030506826033e-07 -0.00033256329727347495 -7.190313337529892e-05 0.00011933476227530202
1296 -4.210581592292252e-07 5.463128792830128e-07 2.516432485254211e-07 -0.00022904407057061603 -7.457424095655744e-05 0.0003522512962995783
520 -1.5907482031800967e-07 1.4066044742110126e-07 1.5455504290134225e-07 2.5657740233080715e-05 0.00023348641345860582 0.00020658176772287993
1022 -1.3079716163066379e-07 6.894310304330154e-07 1.1555777774058762e-07 -0.0001792541219959005 -0.000150826209267406 0.00014679348184020062
1551 2.052136411519036e-07 8.777115186688305e-07 -2.7147971341574596e-07 -0.0004846423375097719 0.0007487806927589872 0.00042155446748377726
2127 -1.2322378539433135e-08 -3.666413283356042e-07 3.842606735651219e-07 4.028337722242817e-06 3.189980469831767e-05 -6.816741863790149e-06
1940 -3.957951820994419e-08 -5.391655369627205e-07 -1.1746385076959141e-07 3.316180098151068e-05 0.00014622740026782455 0.0004029136343216155
1109 -1.4947597937929197e-07 -5.791270666097466e-07 -1.4230900555402794e-07 0.00033089211791664076 -0.00034334956951025884 -0.0002260125887894857
1986 -2.6957108468276632e-08 -5.7910854518208485e-08 -1.2220807467806517e-08 1.9671054143209442e-05 0.000163870063750898 0.000343753029998404
2046 -1.596546685672439e-07 2.5041073291622594e-07 1.9684254555305057e-08 -0.00017464378012336759 -0.00018204192200354713 -0.00012098501705027223
1126 -2.0108612485080823e-07 1.3253026933516123e-07 3.085119352959684e-07 -3.255850746912608e-05 8.931943335653623e-05 0.0001467432290160088
2189 -3.8369564945369347e-07 8.152001331594923e-07 -1.50052252035069e-07 -8.007615824917609e-05 7.425207321536219e-05 0.0002898660360535881
1804 -2.70093407650885e-07 8.633738781069796e-07 -2.5930885439754023e-07 0.0002685986178886211 -0.0002299833574021579 -0.0004647373050879404
1009 -2.980439592561926e-08 1.3740914211168431e-06 -3.0922195072607933e-07 -9.47621079395565e-06 0.00010617890933601824 -0.00016308227607187502
1672 -2.2609565573216904e-07 1.7811125679255505e-06 -4.971734775721464e-07 0.00019397718317126967 6.96335655948498e-05 0.00022232527951176494
2185 7.438866959824527e-08 3.8532976295404233e-07 -1.4174835283827337e-07 -0.00033315438944544324 -0.00026013992837345125 -0.0005686291355999597
1555 -4.882742724815627e-06 3.1542017285533443e-06 -4.3772266698959096e-06 -0.002261211992352633 -0.001756821649411671 0.0010613312745876061
1627 -2.62968351701844e-07 9.101312730032755e-07 -7.153252476486891e-08 -1.42198916266944e-05 -0.0002057183838381768 -0.00014013100022647608
14 7.51343119988938e-10 2.490991892201548e-07 -1.8201366609799383e-08 -0.00043155273052015265 3.006547839568032e-05 -0.00014912710730500222
1675 1.4765044191674274e-07 -7.17425944440389e-08 1.9130199432371136e-07 -0.0001528487688655938 -6.936355980425182e-06 -1.7643101174589804e-05
989 1.583555078502568e-07 -8.101580985398636e-07 5.432050679671288e-07 -0.00023646101258193903 -8.013158733398429e-05 -4.349160650169535e-05
1868 -1.8941105352481392e-07 -6.681729430995064e-07 -9.347017511085494e-08 4.979948472320902e-05 0.000352905491996338 -1.676466125867827e-05
932 -4.780843866161618e-07 -1.0214012750917256e-06 -4.5321228360704586e-08 -0.00012370744412232697 3.225804438365473e-05 7.264727151007278e-05
1598 2.7119687367643428e-06 -2.3560206160863053e-06 3.5564966673360067e-07 -0.0025084778288789666 -0.003744693927076652 -0.002101705780715625
1269 -2.706441429546862e-07 4.817964771961253e-07 -8.314577981301982e-08 0.0001392795309497043 4.32892246483706e-05 -0.00045692200766905773
1927 -7.499567747635138e-08 1.6703138254199398e-07 -1.1048088918346947e-07 -0.0002311189279778234 -0.00015015747276714563 -0.00014911565799352797
1677 -2.980330511530406e-07 2.8889791431907075e-07 -1.8123679057890667e-09 -0.0003148098365852194 2.088082373989281e-05 -0.0001771507905354039
2141 -5.504614418197245e-07 7.723627465713222e-07 4.8921525254667063e-08 -1.4221196893663813e-05 -0.0002507625288201389 -0.00031700913844913333
1814 -4.799570346465558e-07 1.1023450593295378e-06 1.7545192367232739e-07 -0.00010573288650810069 0.00038043376386786936 0.0005462820654448727
1079 -2.1469279422016747e-07 2.2282374624990615e-06 -3.0139117366301546e-07 -5.462561235720839e-07 -0.0001692728915374259 -0.00038141148562414833
899 3.5582593796010577e-07 1.17668761441477e-06 1.170745378764355e-07 0.00035198728038837154 0.0004547400345748309 -0.0004678674585088045
1099 -1.7759923247818537e-08 8.277285233093816e-07 -1.2070453095149318e-06 0.0005437873821463845 -0.0001719661955881606 0.0005915725045010388
970 -4.8081657321142755e-06 3.021189138265907e-06 -9.706337896050375e-07 0.0015572896532504582 0.003799509376077193 -0.0007928477735562148
212 -1.5744655857255181e-06 1.0037138450863348e-06 -1.7713859968377485e-07 -0.00012196057867973257 -0.0005145450578302649 -0.0007708291090648485
2007 -7.582668637760578e-07 1.5435434316767158e-06 4.268080733912577e-08 -0.000668679005308125 -0.0004929219739183441 3.761392115492959e-05
1333 -7.500053211577444e-08 5.10112480069059e-07 -4.153036208152019e-08 -0.00033330965045761735 3.1586537676372906e-05 -0.00023353301907308487
1628 -1.8957741886111137e-08 -7.663116928364563e-07 3.365850300992149e-07 0.00025937442832503607 -0.00013159562482000566 -0.000284993537294262
1629 1.6549252505644658e-07 -8.684070023589572e-07 3.894226189922678e-08 3.463194464700663e-05 0.00012050489103834148 4.731764688583561e-05
1208 -1.0583146277006716e-07 -6.567146860858025e-07 -7.105745671454778e-08 -3.665807666783298e-05 4.621494174050273e-05 -0.00026324940662132614
1472 3.3808449117553795e-07 -9.111527426101018e-08 -2.0069221551012387e-07 0.0002935947382188535 -7.444378815448404e-05 0.00021452711842397793
1960 2.463177971079868e-07 7.773555480508074e-07 -1.753569650378494e-07 0.00021339371231811973 -0.00021474133498951105 -0.0003357604038904844
1373 2.9116866212788217e-07 4.913323892076937e-07 -1.8919357905389695e-07 4.791458754276717e-05 0.00024872741979225577 0.00019720763621774437
1914 -2.499954126516709e-07 2.9521876639060383e-07 -1.970678245444149e-07 0.0002290330492422205 -2.1475952207643362e-05 0.0002535217897614602
1013 -6.870163857728625e-07 8.330929977795992e-07 -2.732377712767505e-08 -6.000764522138964e-05 0.0001401740781826892 0.00024735614864903433
1362 -1.7144608855635286e-06 1.2936999113633458e-06 -4.864446770059668e-07 -0.00017645269326981133 -3.704051472449955e-05 -8.510964191097221e-05
1179 8.459706439401611e-07 9.898347624879966e-07 3.460545385290966e-07 0.00010323149020863699 0.0006603820450574563 0.00017822632866182648
2104 -3.4950389985026005e-07 1.8308795335597665e-06 2.3195031001442613e-07 -2.835236171806523e-05 -8.291280826547295e-05 -0.00032155939610417514
1655 -8.644820719259964e-07 1.5997220709866214e-06 -1.0048568497932214e-07 6.993007711257962e-05 -0.00016141543179198662 -0.0005332703540884594
590 -2.1117987112067164e-08 1.9101712270814463e-06 -7.17197890868671e-07 -0.0004448861495309738 0.00022418606198134234 0.0008236427774502458
1222 -8.017101102875041e-07 2.1828859389056382e-06 -3.0543892314100117e-08 -0.0008921354530148609 -0.0004969835059884278 -0.0006085662777204053
1427 -5.377898833539841e-08 7.45552406366623e-07 -5.652354051416015e-07 -0.0005334842503186108 -5.747069388109936e-05 -0.00016318951973399195
194 2.1190632450937915e-07 4.1016791373955794e-08 9.877732146571982e-08 -0.00021877199115970342 -8.516163588830835e-05 -0.0005346597113966389
950 1.831531112673792e-07 -9.906366288863437e-07 3.0774943649552667e-07 0.00022515625609335394 -0.00013936751480262357 -6.005250117624857e-05
1544 -2.3696658442632124e-07 -5.258055378120668e-07 1.9966763525535945e-07 0.00020532703557722231 0.00017258860456513102 -0.00011765114205802885
1588 -4.1375936753659243e-08 -6.910643688317242e-07 -2.7142371876196063e-07 2.6815235556631194e-05 0.00010461534850759908 0.00019421756393407747
2164 -1.5308049084037037e-08 -2.0483685048039511e-07 -1.5880676434377083e-07 -0.00011026410318786057 8.763540558991527e-05 -0.00031380595451198725
1999 -5.7180343376254484e-08 1.800847577652866e-07 -8.543688361981282e-08 -0.0004355629075613955 -0.00025051280181194197 -0.00016127457613986375
948 7.073702945028383e-08 4.6359588234106537e-07 -9.558729998235731e-08 -0.00022623520165879042 -0.00013203306737325174 -1.3851222096595934e-05
1685 -7.73704136663457e-08 7.647049962865776e-07 9.08498474908767e-08 -0.00029122980261383244 0.000285739456696607 6.706624792194094e-05
2090 -9.593699996502884e-07 6.819547961499605e-07 -4.722683636088905e-08 -0.00018522040556265924 0.00042329689434883743 -0.0001811871040384377
1140 -1.27112750908361e-06 1.7103183189265087e-06 -3.2352879267929496e-07 -0.0002248583213792782 6.108962683863129e-05 2.2717435234226226e-05
622 -1.606986970413026e-06 9.340776933838221e-07 1.7792798142580215e-07 9.422061795198639e-05 -0.0006119217635597114 4.689617343904279e-05
1980 -8.445986663208456e-07 1.965629396788335e-06 -3.1024041217750244e-07 0.00024024915778946988 3.081264043612274e-05 -0.0004551479712981924
1132 -1.9873622765655873e-07 1.373401565582626e-06 -3.494258901309571e-07 -0.00044964094166365066 -0.0003765153090930383 -0.0004377012609188629
91 5.786741413175508e-07 -8.320689631608702e-07 9.447978757189304e-08 0.00013858807867651074 0.00026108615591072715 0.00042972970242246227
961 2.550173063776079e-08 -7.769364898900425e-07 -5.823388019041458e-09 -9.24505777250402e-05 0.0001429139311581032 -0.00025389378171561687
1585 -3.4369485921004567e-07 -4.5924638676577036e-07 6.861272859661892e-08 0.00017626496973263884 -0.0002356098178948057 0.0005204762793367551
1156 -7.675898150958772e-07 3.9021153378091874e-07 -1.2826649889998595e-07 0.00014836704708442932 0.00010390963018811804 -0.00023384634577562573
2048 -3.6704673753926296e-07 2.748494352069715e-07 1.6528087705037666e-08 0.00031712278451925157 -2.4577580854460762e-06 0.00023578875628176417
903 -5.560405433476567e-07 8.06076334273606e-07 -2.6750416214178896e-07 -8.546010335231348e-05 -0.00010831225846321118 0.00011515765152524179
1617 -1.9913487620031103e-06 1.0291182076842443e-06 -1.6680320955436298e-07 3.50257223997375e-05 0.00025565811514003593 0.0003868075453931399
1488 -1.351774972096905e-06 9.165791714770274e-07 9.794329322046737e-08 -0.00047409658434694894 -8.725158864902778e-05 0.0004779663780371564
1708 -8.757278949977357e-07 9.696782835257941e-07 -4.3551182462494385e-08 0.00022971487045823422 -0.0003084171817743524 -0.0003238923254068067
366 -1.0424311141573418e-06 9.614996047701773e-07 5.757576903402427e-07 -0.00020944006461543068 -0.00020200448487420555 -0.0003334378690988393
1705 -9.91637573983408e-07 1.727586765234722e-06 4.286512670047036e-08 5.760210204280489e-05 -0.0003481279324087949 0.00043873522882818583
1976 -2.521041496334776e-06 1.492387420797474e-06 2.3652124175157604e-07 -2.721666037998136e-06 -0.0009019663137305998 -0.0007501379382056456
1506 -7.297794343026034e-08 9.684355857726356e-07 -8.618651988087333e-07 0.0004877432847017179 -0.000403389266616573 -0.00018359982145559978
1719 2.788756555912842e-07 -5.680185037779154e-07 1.0773350973883368e-07 0.00037064156967908 0.0002759844882462514 0.00026274464561311546
585 -6.738065188156859e-07 2.151264884687554e-07 9.430865272979391e-09 4.8157505534552086e-05 0.00019269436562732484 -0.0001823404202830814
2153 -9.611703696245163e-07 5.714855124388438e-08 -3.4774253103621456e-07 -5.455273660023479e-05 -0.0002489007304464345 0.0005670860233693551
2152 -1.273179845305486e-06 1.2585541610303311e-06 -4.613222859102e-07 -0.00017999382129338794 -0.00031175591087664254 0.0001985002169065905
1693 -4.608065115649625e-07 4.808209582728061e-07 -9.964124235010219e-08 3.1952687302190355e-05 -0.0001261906056894319 0.00024868020023042467
935 -1.2560297804352574e-06 7.80956009650454e-07 -2.0339764482221405e-07 7.195609656930846e-05 -0.00021547604911070762 0.00014452048459219805
856 -6.610673386019687e-08 1.1583568706057006e-06 -3.0586092910134006e-08 0.0001902735653485427 -0.00017218293239910646 0.0005241819155316498
2050 -1.6170981796758963e-06 1.041353866688494e-06 2.6735260734349374e-09 -0.00032976542152159794 0.00010648191715464928 0.0006026453761347369
2042 -3.132283247458133e-06 2.4899734033727496e-06 -3.8779106173496095e-07 -0.0005913113395078466 -0.0010775118023997612 0.0001670389425071792
2199 -7.230445261891277e-07 1.0118400333603389e-06 5.989733349190518e-07 0.00033663036509836173 0.00027511072576197874 0.0003262574412657029
1637 -5.225363188071121e-07 2.0549796576296907e-06 -2.640923711155924e-07 -0.0005090837802783101 -3.3859217325232594e-05 0.000138263193560084
1297 -7.708002121824264e-07 2.495239055708682e-06 6.43215205474506e-07 0.0005194508441744706 -0.00010798350747869788 0.00012067836145865988
673 -2.1598524724208536e-06 1.8886650658117386e-06 -5.321890320849954e-07 0.00026766016432951817 -0.0011586012843655313 0.00010215398781879544
1322 -6.989091642029279e-07 9.630015480340152e-07 4.970201433327582e-07 2.502256713343677e-05 -9.592230239511815e-05 -2.9278594906688043e-05
2074 -2.864788429959481e-07 1.1717281249196725e-06 4.9484511625357294e-08 0.0003763622905339622 4.019165517172624e-05 0.0002748592593125492
1839 -2.4180102421183994e-07 4.0383944823645185e-07 1.2584588217013022e-07 -5.133792262805306e-06 3.0195293547396306e-05 -1.5763732139303222e-05
1947 1.3274289407016381e-07 -6.548230269369972e-07 1.1146916568247743e-07 0.00042117445146800774 5.282903423440147e-05 -0.0002511382726092991
308 1.3199120807991493e-07 -3.9579961655235476e-07 1.3304088139680029e-07 0.00027737773819535357 7.878749308371628e-05 -0.00011021886271385815
1662 5.9204865028655277e-08 -8.108375206225619e-07 -2.7238276284120504e-08 -6.551004412094716e-05 -8.806704316306646e-05 -0.00014729954344623223
2091 -9.885050249115974e-08 -2.7902146575357005e-07 1.4561943693295389e-08 0.00011996925885222696 0.0002607937014605423 0.00022456693620141835
1726 -3.2430836534244607e-07 -9.575899518525026e-11 1.322897347755402e-07 0.0005644574567308957 -0.0003603944606969929 0.00023781955589971123
1020 -1.2438299604548034e-06 -4.546565498293437e-07 -1.1980569039396044e-07 -1.4740726308544343e-05 0.00021308616814191066 -0.00039838749848943153
1813 -1.3766740330147373e-06 3.734782339751581e-08 -1.282795427873881e-07 -7.289383225024559e-07 2.9235679094272068e-05 -0.0006033082057163014
1168 -2.3757912676621236e-08 4.376994201233287e-07 -5.096534289706759e-07 1.7226145291473755e-05 1.318571740566752e-05 0.00025381124926214657
1970 -7.1708149940488e-07 8.333500533043254e-07 -2.4969170515858024e-07 -0.00010361677683770124 -2.3075525215260777e-05 -0.00030967482494689613
1816 -1.4629733309629448e-06 2.007388105122552e-06 -3.3203815542268535e-07 -0.00011363208533774768 -0.0007609384493869126 0.0001646955057770382
1489 -1.1012188847488966e-06 1.86733521840485e-06 -7.967989984744737e-08 0.0007008508505027752 -0.0005054072680138532 2.081201745304752e-05
973 -4.3017118138802414e-07 1.855093623934495e-06 3.896433683449505e-07 -0.0002226769260299964 0.0001630902888664164 -0.0003493782671059723
1402 -2.2281052987888513e-07 7.304901742167477e-07 2.858763968734823e-07 -4.1066857766597185e-06 7.658222022270306e-05 -0.00019648439664005993
1056 -2.3701644941575316e-08 -1.0944363720545704e-06 2.3405939162819707e-07 8.192785467213695e-05 -0.0002861943214530801 -3.341336072160865e-05
46 -1.4630486837952035e-08 -7.110349299607449e-07 2.751630960791445e-07 2.1570351150585685e-05 0.00021740930957845527 -0.0002292663235122342
1797 -4.568475458888192e-07 7.649510745563496e-08 -2.2537282084861158e-07 7.415443920745984e-05 -5.4442630141737155e-05 -1.7738118525957134e-05
1645 -5.366563888533851e-07 1.2577687000308858e-07 -1.7885439918027102e-07 -0.00015214270521811223 0.0002626699840844255 1.9789264779899025e-05
1892 -2.209553951170407e-07 5.128591547583111e-07 1.3709263098439983e-07 -0.0004147695403222937 0.00026900616729531537 -0.0002765847943361932
1661 -4.926723328791817e-07 1.2634330541884702e-06 -5.819163787156777e-07 0.0001307302036918841 -0.00045219431438408593 0.00022885623852516353
1625 -1.579837874768742e-06 1.1530941863562615e-06 2.6786756231922504e-07 2.879083222675697e-05 -0.000952552396060345 -0.0002210427102817873
1248 -2.2488949082990445e-06 1.5347128614867825e-06 4.615439721581312e-08 3.903226130368494e-05 0.0010468078431423407 0.0004678667549074367
2183 -1.5457953100269875e-06 1.9615193037620662e-06 -6.172819996755171e-07 -0.00014414255406848076 -0.0005404294193605231 -0.00018928054430696818
1618 -1.3200960509557087e-06 1.438839401302854e-06 -1.3920950772405888e-07 0.000354164027793475 0.0003126586006478908 -0.00017386592680427012
983 -1.3597168072619542e-06 1.214537333433567e-06 -5.085045588521298e-07 0.00028520676983353343 -0.0002396421189397477 0.00028204056306289823
671 -9.68367808251446e-07 1.052145858995866e-06 1.720315931406243e-07 0.0003847528380007533 -0.0005937546544725471 0.00011493007781308539
33 -5.325249431286204e-07 1.753980605890424e-06 4.1378567395870933e-08 -0.000756147892580898 0.0005690089927061085 -2.9447854474307192e-05
1694 -2.7255460478447804e-07 1.6522388791234923e-06 -1.8911994168045318e-07 -0.00019634978735893073 -0.00017403654686238694 1.1373057258616815e-05
2004 6.343571537268044e-07 -7.119187655561567e-07 1.6290574493911746e-07 -0.00040423564372780947 -0.00037492154706437954 4.453147576769224e-05
1907 -2.5374591741151878e-06 -1.596527767589025e-07 -1.0648685633963343e-06 -1.1227096486212448e-05 -0.0010405259918010925 0.0006981630349812576
1809 -7.861154730093139e-07 -3.99983792789156e-09 4.073580634734894e-07 -9.932813291464576e-05 -0.0002324343046934787 -0.00013504754523251578
2107 -2.4750213420590754e-07 -1.867836218398776e-07 6.030237251348465e-08 5.780484479728051e-06 0.00017186821782893058 0.00039334661271666407
2160 -6.014713056752072e-07 1.7097269948563662e-07 -3.4172925924235576e-07 -9.135341634601142e-05 0.00048440032195475367 0.00018065241813777403
1264 -6.590638408350047e-07 5.579903997311706e-07 -8.400560387160572e-08 -6.041610146800015e-05 4.834540248367654e-05 -0.00013826921318995408
1966 -7.382574304266675e-07 2.1343416464977707e-07 2.9006974047504484e-07 0.00017567299657174769 -0.00012503271110226026 -0.00010825937666094723
1037 -1.8523819119094821e-06 1.0238670764295514e-06 -1.25270185942315e-07 0.000378085419182123 -0.0002621110636030318 0.0005212824623025521
1924 -1.818422945799401e-06 1.6783916242565476e-06 5.719372852619472e-08 0.0003318670846711005 0.0002603199340057773 -0.00035318029230720343
2197 -2.3321542387239316e-06 1.3631708990683273e-06 -2.5961740720952965e-07 -1.2800253364316905e-05 0.0009819347121960038 0.00017342693004416396
1998 -1.4251580264908646e-06 1.8184352871397543e-06 -3.0052772222487407e-07 -0.00014927237548088116 -8.816520808167696e-05 0.00022819163554962848
1518 -1.490315652057069e-06 1.5377237448464107e-06 -1.0450102539402933e-07 0.00010232159724614918 -0.00014721430409929469 -1.4407925829644167e-05
1921 -8.159845070681122e-07 8.658351666631641e-07 1.5567186274982723e-07 0.000168077516729458 5.446929749736482e-05 0.00042239416547202295
1335 -1.2372526855234169e-07 5.864831796768481e-09 2.0815654164519257e-07 -6.640759351699329e-05 0.00018097967946050926 0.00017314299960967757
349 -3.0994820794143027e-07 -9.090192673322042e-07 -2.2779626923887457e-07 8.372713126152452e-05 9.440029331093368e-05 -0.0002735092103164834
1891 -2.0251905968739738e-07 -6.202914862606153e-07 7.781602159024858e-07 -0.00015454814909443562 5.508282941586339e-05 -0.0002032482977911223
1478 -3.56220360939671e-07 -4.235842857591991e-07 2.9231719522141876e-07 -5.266297759398782e-05 8.912925307314178e-05 -0.0002209551910198225
1651 -7.04806733786102e-07 2.47284184522205e-07 1.923245079301735e-07 5.292177966333355e-05 -0.0002433197994413752 -0.00011322473836339445
2080 -1.1123300204924535e-06 1.1919788915418493e-06 4.2661760202623555e-07 -0.00033629725070540977 -9.886164658555489e-05 0.00010209322052554865
1649 -1.2289984828928413e-06 2.169726288634986e-06 -8.347184854471767e-07 -2.3600909686367603e-05 0.0005762346695296924 0.00035650749548399985
897 -2.1846997177799443e-06 1.8583449304242597e-06 8.732643456664872e-08 -0.0005102520242690596 -0.0006231861424316753 -0.0002879068729265796
804 -1.8725652279419447e-06 1.6345639732942396e-06 -3.756848860789263e-07 0.00028830446126972643 -0.000374061787802355 0.00041221335211875037
1982 -1.95386556389657e-06 2.049574207412446e-06 -6.126857932560439e-07 -7.595431350815848e-05 0.00011263872273388904 0.00016960683437302612
1762 -6.823723127746255e-07 1.7057027225600918e-06 -7.438546484122062e-07 -0.0002617657037126253 -0.0001728607834197915 -0.0004346227085307242
2118 -8.579087321384602e-07 1.2619139037968902e-06 -3.583024978100532e-07 -0.0005055707367007306 0.0001708581314639708 0.00035682625005887685
2085 5.301233340536576e-08 -4.176989332027355e-07 4.816107235439082e-07 0.00013452011952552674 5.7491161245540326e-05 0.00035027464920879786
1733 -5.986584663794326e-08 -8.560571464422361e-07 2.043917641781455e-08 -0.0002585669686862043 -0.0001260197020634913 -0.00023783767388410005
1894 -2.8329895335436928e-08 -9.093175686198274e-07 5.474822965447809e-08 8.578952235029102e-05 -5.4887952733156004e-05 0.00010766251122777217
2123 1.924330863967968e-07 -5.91994724818495e-07 4.26244275790884e-08 -6.007738126556949e-05 -7.070950083237387e-05 -1.1089471787323406e-05
1972 -2.175626741647831e-08 -6.214004142296842e-07 1.3263163413698478e-07 3.377016455899019e-06 -0.0002783568923268093 -0.0001942305973375712
2126 -7.691518320457823e-07 -1.418127524947817e-07 2.6491167479055866e-07 4.272449965811224e-05 -0.0003185840002080392 -0.0003018646591587925
1621 -8.222001128059296e-07 4.1864967826717924e-07 9.967351719649565e-08 3.762364724643469e-05 0.00032821285041710645 0.00018784232074018462
2073 -1.4680684038775827e-06 2.401316535030303e-06 1.6383483318992375e-07 0.00014725610116908964 -0.000279641983088659 -0.00022445827786670618
1018 -2.830221702372259e-06 1.6324520242944406e-06 1.6693600234931211e-07 0.0005493250373388867 0.000525759538017899 0.0009386618367975517
1718 -2.3261113976286155e-06 -1.366850434670283e-07 -4.377824685581131e-07 0.00013645531419870485 0.0003289255658792063 -0.002253693450024509
1207 -2.063509872629195e-06 1.9750460378899815e-06 -9.918482908154001e-08 9.330210007384031e-05 0.0006484503301376674 -0.00022247802579440998
1851 -1.12357894765623e-06 1.0188313387249101e-06 -1.6906274075802587e-08 4.191857309864965e-05 0.0007250867931793037 -0.0001777369624145043
2053 -8.760540625937992e-07 1.5224189141006811e-06 -1.9050037961555908e-07 0.0005489507685417493 2.8404781711461432e-05 0.00038669031949652274
942 -1.1291940280562405e-06 2.7079036386582706e-06 3.007876220281386e-07 0.0001226642254230958 5.1247527105896676e-05 0.00046753615430608983
1874 -1.3196994715129004e-06 4.1746117475002767e-07 9.499401487204725e-08 0.0003644844540333268 0.0005356035307257899 0.0005879017717127489
1044 -1.1099726578817617e-07 9.579883098460394e-07 1.6508246202826991e-07 0.000418375543609077 5.1473704110099856e-05 -0.00019999440908001666
1315 -5.797020877139008e-08 -6.847708586078082e-07 -4.311334561429987e-07 -3.0687624655721096e-05 0.00024333647396415913 -0.00023489396493712498
1298 1.3570454771847734e-07 -6.677839177527877e-07 2.983405238931772e-08 -0.00012135085876496003 -0.00011458131875460998 -0.00017262553300823605
1491 -2.0565929106880803e-07 -5.838431523903946e-07 -6.525150058616715e-09 1.0565041473159794e-05 -2.754516085529993e-05 0.000276949616913585
1788 -9.367054122458357e-07 8.56127325085298e-08 2.646200896300713e-07 0.00030274782864493296 0.000493458146884304 0.00019283206714039897
1904 -1.2071526911727793e-06 8.129909062195412e-07 -8.172353426064895e-08 0.0003322085015874707 -4.397282824496619e-05 1.8654564483356086e-05
1900 -1.6231355582511523e-06 1.5719641295209633e-06 8.104107374452182e-08 0.00020959982466646395 -4.1066222374285194e-05 3.929372558360138e-05
1759 -1.3439736690011933e-06 1.4138693598737734e-06 -6.353932665408013e-08 0.00019051812285755928 9.824629815197935e-05 -0.0002453877206721222
2072 -1.4421547888243272e-06 2.38004784913656e-06 3.7346576703416414e-07 -4.409989117948948e-06 0.00018766113281966682 0.00027510965507188134
2145 -1.551493150267877e-06 2.494427990810724e-06 -1.4396457669468439e-07 -0.00017914356672093777 3.9789787179159e-06 -0.0003523768104233536
1984 -7.467532123917814e-07 1.9774067944449733e-06 5.737879416216654e-07 0.00022225490631328567 4.726446507039144e-05 -0.000227784743793018
1910 -4.34355168533227e-07 1.2137106902588763e-06 3.791481118678081e-07 8.321078910024566e-05 4.262579151775308e-05 5.508002441705871e-05
1499 -1.4756167307741416e-06 1.4285276989418984e-06 -9.59059824602649e-07 -0.0001361660559502011 -0.0003100300077233476 0.0003491862651443535
1704 -1.6909552584315575e-06 2.1277785007428006e-06 3.9089862586359845e-07 -0.00021656040310055757 0.00013942638008755057 5.816974943258328e-05
1631 -1.8976543033161983e-07 6.578042715968871e-07 3.614858778551257e-07 -0.0004721495386394163 -0.0004546083661791433 -0.0004512824348672621
863 1.4477874050501307e-06 -6.54026048008374e-08 -2.7116317251707743e-08 0.0001243506155447569 0.0003570172558498405 -0.0008034214653200482
974 -8.083389782426455e-07 -3.748703225764854e-07 -2.6830195037028735e-07 4.255044394342827e-05 0.0005010794418866892 -0.0007359691492023212
352 -4.151572072804419e-07 -7.287340293534341e-07 1.2123838953691041e-07 -0.0003180633730966512 -0.00048166766158856683 0.00017151435134705242
1089 -1.1134858845817713e-06 -2.6298109131959435e-07 -8.715120853940559e-08 -0.00033396745607393004 -0.0005749436311693452 0.00028823707779859504
1101 -7.812396366788015e-07 -6.000389885366978e-07 -4.1820747024020543e-07 -0.00024084999041342422 0.00014863671519522255 -0.00022042140446531226
2071 -6.503192650668686e-07 -4.967789391275885e-07 2.30699599135391e-08 0.00026225298479426885 4.7520455793799194e-05 0.0005609420836806437
1243 -1.7815265836024695e-06 1.3152141800531796e-06 1.4392050872992032e-07 -0.0001322576663670126 6.545766532972582e-05 0.00023318015436731346
927 -1.5965314829590098e-06 2.0168824023256194e-06 2.2164656851518044e-07 0.00011548948304196494 0.00015454636444252817 -0.00024272184488941074
1807 -1.4652794351856142e-06 1.4600034305649305e-06 2.9981724745880976e-07 0.00016102842976752302 0.00020625143712352446 -0.0003094425642586291
1785 -2.4453213936657025e-07 1.619210615164266e-06 8.805980317028503e-07 0.0013043504330020324 3.3731920315341255e-05 -0.0006650477248011605
870 -1.0254512367749605e-06 1.3604261327627282e-06 -1.6241386081737677e-07 0.0001405800323561636 -4.427604605306705e-05 -0.0007065802580635162
1991 -4.224690778975674e-07 8.046127437568799e-07 1.1923378648292968e-07 -0.0010804560177347057 -0.0002066279321692588 -0.0006238369930158615
823 -2.617881199722916e-07 2.3994948857690606e-07 1.7681185421768028e-07 0.00017977243921042598 -3.6849906629488694e-05 -9.143077499892415e-05
1939 -9.702241665665798e-08 -4.503913506505356e-07 4.261774797850441e-08 3.0313403623306608e-05 -8.098895184552405e-05 -3.106068869449599e-05
968 -1.9335240087410406e-07 -9.215147988831504e-08 2.101311113285185e-07 -0.00032079351380878056 -0.00014868148899607734 8.676994305768454e-05
1920 -8.955785246787438e-07 5.329050413725577e-07 -1.370742230103112e-07 -0.0001035746475669232 -0.00013373523673335564 0.0003288336122806232
1371 -8.565212246035174e-07 -2.0533671374890606e-07 -1.6398099242108002e-07 -3.953248771078315e-05 7.1820589911193e-05 -0.00049220070305499
1801 -1.4933730464564953e-06 -1.0805045718279074e-06 4.2358837089526535e-07 0.0004925922119131519 -0.001056254707519897 -9.388609970614625e-05
2030 -1.6259774090263146e-06 3.419658978755839e-07 1.7731006233157057e-07 0.00010286727248415021 -0.0003597935203532102 0.00012218910985786118
1820 -2.1241806317106747e-06 1.0554812997219026e-06 7.939041034974622e-08 -0.0001778044730174014 0.00034284972238065773 3.230145071824113e-05
2087 -2.0118694820630567e-06 1.7949226932682318e-06 -2.1854255671812055e-07 0.0001365222852146909 0.00025843533684465054 -9.24637893273429e-06
1074 -1.5649299774515595e-06 1.826125356137392e-06 2.355354547459501e-07 -3.8083010696704543e-05 6.544334929630681e-06 0.00015382536725202527
1184 -1.8886752373020114e-06 1.841856730389012e-06 3.1991814255119097e-07 -0.0002465567300455544 0.00012542599548821616 0.000820684908825439
1573 -2.0086027136918003e-06 2.3480246023639407e-06 -2.593325827639061e-07 3.147545561190882e-05 -0.00011298863988863749 -0.0006448007044279047
1090 -8.314831982534676e-07 6.267440821973093e-07 -4.2797039819414366e-07 0.00019178215149059921 0.000152883325226047 -0.00023939202222752925
2175 -2.3283639643196305e-07 1.1081166105221165e-06 2.1067652215468962e-07 -0.00043838588183363325 0.0004180020650019296 -7.470446575636502e-05
2142 -1.9362355076696287e-07 1.4735414119966204e-06 4.835518013392173e-07 5.1006029539211144e-05 4.0131330384012404e-05 -0.00026383870534334527
1877 -4.864214426516378e-07 8.686453048774939e-07 3.60530834843416e-08 0.0003713410994909619 -6.047207061196074e-06 -0.00016354121434628856
1690 -7.049642847399892e-07 8.504351233081102e-07 3.5000739376505325e-07 0.00010026651885538181 -0.0002767091342878071 0.0004961083242974541
1386 -2.4062697040930016e-07 5.674953697224119e-07 1.1819018989880578e-07 -0.00011708342561609164 0.00022527726365079092 0.0004232257552202071
2138 -1.4812025257347492e-07 2.9714055166485184e-07 2.436620484174351e-07 0.00014737420143822006 8.242955340193405e-05 -0.0001779145572224668
1589 -7.800372920859416e-08 -8.635908754045062e-07 2.508938721095944e-07 -7.515559240979836e-05 -6.674326435697826e-05 -0.0002882323592038701
1833 -3.36097379217045e-07 -6.538430744573573e-07 -1.7361192015596763e-09 -0.00038328574706421445 0.00015569104781773893 0.0005208683918038742
2171 2.9702763461731767e-07 -3.430025816040734e-07 1.1237829412791286e-07 -0.00034699006667103483 6.892851518397584e-05 -0.00042093009715527723
1015 3.272027236119734e-07 7.17841505345716e-07 -1.4596625348595248e-08 0.00041380269702834016 -6.75243601109714e-05 -0.0006528358410339432
1312 -5.783010770941277e-07 1.602685947243082e-07 -3.1029560272584477e-07 -0.0007220576535482717 0.00024344706137764016 0.0002983095193413719
388 -8.00072197833915e-07 -4.0502009120356237e-07 -6.123523134182291e-08 -0.000349929156166843 0.00030957616451872833 0.0004943339380012854
1954 -1.1053138582539207e-06 -7.481839792753856e-07 6.248622528791357e-07 -0.00026427026870337887 -0.0007763783904327736 -0.0009652827581229194
1912 -3.504265430334274e-07 -3.024459777516074e-07 3.924326447193265e-07 -0.0004988883028033938 0.0013596787028968213 0.002158124315345208
1319 -1.0964004670048894e-06 1.666372633201539e-06 -1.3828286560870544e-08 0.00011924943843783218 0.0001944148289095346 -0.0001407757800652891
1006 -1.0125463910688404e-06 1.0564661552236327e-06 -2.1369216080849957e-07 0.0003892945988061957 4.1784692285429095e-05 -0.00026019959620061266
2055 -9.142040796854704e-07 2.0074321354454302e-07 -2.611675289577834e-07 -8.974528790470897e-05 -4.494515140431828e-05 -0.0001386196589907778
1953 -8.937063249321377e-07 6.83446864788153e-07 -1.8840246076250774e-07 -0.00011276964601993867 5.497957720740302e-05 -0.00010267405795976428
858 -1.5723082954064527e-06 1.5303161877347428e-06 -3.7830318478170887e-07 9.148368931596826e-05 0.0007462875720858787 0.0008955373006227558
1926 -2.5746109806409275e-07 4.7356552277048656e-07 -8.249027260899835e-08 0.0003951986273194521 0.00045232276493879716 0.00015500072692267106
1702 -9.72705252210739e-07 4.185252407627965e-07 -3.3694180969732956e-07 8.583575453767136e-06 -0.0001873040978839809 -0.0001984574560629861
1088 -3.510790648400991e-08 -1.3080616896185829e-09 -3.3555551927587764e-07 -0.000745940625011851 0.00013362692724814643 -0.00014995001651376988
934 -5.030979326056803e-08 7.343765237612037e-07 2.6917171069728057e-07 0.0016492003924386326 -0.00044770378586377453 -0.000217663072403729
1769 -2.8453614404272404e-07 -2.3072238436383536e-06 5.613717838434142e-07 -0.001798680649552787 -0.00041303376265175884 0.0015797918138229818
2039 -9.196961767245067e-07 6.553768275478147e-07 5.947084537348449e-07 -0.0008240115545271015 -0.0009791581075782735 -0.00045417879510547393
1753 -1.2684267824997564e-06 1.1679210691280082e-06 3.508976859199902e-07 0.00043054002440095774 -0.00042848883182925157 0.0009099474718458134
1492 -1.2431069422446854e-06 9.145021101737599e-07 1.7219968413452385e-07 0.00045050245926304944 -1.544735185372305e-05 -0.0010584507812164635
1395 -1.4574012691589725e-06 5.290152049889129e-07 -1.1580642032146392e-07 0.00011667563550039744 0.00022264186110736495 0.000287673095993944
1929 -8.907148718500217e-07 7.059492734747333e-07 3.259184642709293e-07 0.00025739053322332343 -0.0005595544740124122 -0.0007289462888411214
1529 -7.53995439419585e-07 7.397392695003624e-07 -1.7063545822349768e-07 0.00020870056764755584 0.00018885474179953325 -0.00023536405642889967
1288 -1.5519732340691533e-07 5.214004337983037e-07 2.680288321626641e-07 0.00026390458070661433 7.159974415018501e-05 -3.204026536958791e-05
1367 -8.717227088747698e-09 1.838734465798701e-07 2.4311671043795197e-08 0.0009022172704170484 -0.00011596361203263008 0.00010619400443020287
1233 -1.2993601230365553e-06 2.0236819001311855e-08 -4.96796406711172e-08 0.00027178315325732664 0.0007246126589024769 0.00030359662803459346
954 1.5408831127716975e-06 3.587039409289395e-06 -6.466727037947136e-08 0.003170531267934047 -0.0013656608494760287 0.0005616546229508162
2102 6.530875349363967e-07 1.2442213307726043e-06 -1.0551003326898997e-07 0.00037970067604215874 1.871143800078262e-05 0.0007222466016734201
953 -4.759749390204927e-06 -1.0518064383023394e-06 -1.3095302348544022e-07 -0.0012194446210833365 0.002294102882662495 0.010491529416137896
1572 -1.3342025878172392e-06 5.182232141415345e-07 1.441169679109186e-07 -0.00029635241956064783 -0.0011974956579716217 -0.0004651969099840065
1503 -2.409165210720154e-06 8.490468644857643e-07 -1.561856947845065e-06 0.0021491250024350036 0.0018045730390767642 -0.00013734801911150898
2051 -1.0936844157510333e-06 -2.8795207838172546e-07 -3.129784432380303e-07 0.000402178681906523 -0.00018440527253582058 -0.0008589995544908816
1808 -1.0925352637286498e-06 3.4420698641961987e-07 1.8975028888877523e-07 8.784120993974726e-06 0.0010432163583626787 -0.0012763571234163092
1535 -1.5153695546957736e-06 3.72921673069331e-07 -4.6331246240413155e-08 0.0001958632091563183 0.00010334405570623869 -0.00029936364168618794
1603 -7.27400945643453e-07 1.0567017969004538e-06 -1.8195913550645364e-08 1.2553913531322108e-05 1.3132152926937244e-05 0.00019424643945975385
1183 -5.575654714696171e-07 3.747808388193736e-07 1.1280704067507607e-07 5.446113640171002e-05 -6.972592195737332e-05 -0.0003690720419702037
2068 -3.950745229398124e-07 2.9946167892874993e-07 1.2668218630197236e-07 -0.00035987192737065764 0.0001843516922060373 0.00030409948542220797
1199 -2.037685244713433e-07 5.021976319890343e-07 2.6627245388247537e-07 0.00011329799692390172 -0.00022800154741622845 -0.00027761389893443396
1163 -9.745066954037012e-09 5.031638529460226e-07 1.84970944617599e-07 0.0003582376979712135 6.367923973393634e-05 -0.00038810900171568405
1123 3.5571630522991658e-09 5.972835283596274e-07 5.509967181156473e-07 -0.0005505912057103586 8.178631814746479e-05 -2.7478063089208625e-05
1091 -5.974228832778408e-07 7.182579062217261e-07 1.22610589790912e-07 -0.0002300712902062908 0.00021584969382891424 0.00022886955427328553
1209 -1.8819648941031136e-06 1.7482951299760183e-07 6.165010287454983e-07 -0.00017395653076743414 5.809655461735883e-05 -0.0005555312967299634
1357 -4.4224241606299214e-07 1.3635263205420303e-06 4.349152080056231e-08 0.0011442698489962367 0.001048637124982628 -6.683522549461756e-05
1023 -8.170188141742511e-08 3.3644743792904685e-07 1.8734617936883412e-07 9.325618035579545e-05 0.0004058961589384225 0.00027716173697346034
631 -7.505090045305552e-07 6.778130094506877e-07 -3.424248713258596e-07 -1.8168136262329236e-05 -5.422134523902457e-05 -0.0005172829625626407
1590 -1.1258640491096302e-06 1.7346634291264269e-07 -1.3740794958420483e-07 0.00017226241017267763 6.928623507510923e-05 -0.000659594978177664
2135 -9.831512416708279e-07 5.236973861935528e-08 -2.9149120740454125e-07 0.0002555370537581351 3.6500307812493545e-05 0.0005312193953841762
1734 -4.799295415105068e-07 7.375843742916633e-07 -2.129513348822383e-07 -0.0007879520218162645 -0.0002613326326217067 -0.0006049254818451253
1516 -9.626625835041896e-07 -5.623470786438651e-07 3.0380273406268533e-07 -0.001343253338436292 0.0001526598449397722 -0.0017974544982977054
1024 -4.08443610142384e-07 -6.870901862930519e-07 -5.229973432405186e-09 0.0010059910932846811 -0.00023717469703106667 0.00043715759765099356
861 7.618835223958316e-08 3.87875954011881e-07 2.2620358710250561e-07 -0.00028398148534138106 -4.8710765904787495e-05 0.00021625571294985242
1671 2.6616051910149337e-07 7.024730169586808e-07 -4.4174694439779947e-07 -0.00025340663078652395 0.00037081442218720356 0.0002319246440401022
1460 2.6639311851093853e-08 -3.2936615206962527e-06 -6.048034685255361e-08 -0.002225899574825319 -2.0987584392879595e-05 -0.00096285062947247
1180 6.828594218139021e-08 5.375345716290076e-07 -3.338664312778438e-08 0.000528868410629048 3.172972574938659e-05 -6.20081417002698e-05
904 -1.1747015733055498e-07 6.550475156788827e-07 -2.1017303431350765e-07 -8.473158886462716e-05 -0.00013030523519489765 -0.00020860089817882984
1350 -1.4314497952310278e-07 -2.3657421660362927e-07 -5.0638884408177386e-08 -5.185526248275669e-05 -7.378435513342336e-05 5.104126758787553e-07
1933 9.640056333260037e-08 7.805528071664274e-08 -3.5992844111593835e-07 0.00028698057098381827 -8.090874581063324e-05 3.0128933799743822e-05
1411 -5.121759510381436e-07 2.626061626393927e-07 8.537851254505719e-09 0.00011251419934854182 0.0002937780105806104 0.00013031940600337631
1610 -7.882332766652681e-07 3.2509415234500436e-08 3.117560843131029e-08 7.108302155023944e-05 0.00030996293995847347 -0.0003330823446118175
958 -7.456154699650729e-07 -1.4219878312523858e-07 1.4359129214705562e-07 -0.0004991711824766441 -0.00021674822025610064 0.00018726740302175792
1016 -8.580887851435846e-07 -1.1004935979038078e-07 1.1518634591951748e-07 2.59016748555229e-05 0.00014600060330529567 -0.00036507626174613777
1758 -1.0565554630900238e-07 1.6950579203870977e-07 -2.261708967230169e-07 9.315972613390696e-05 -0.00013883106847336027 5.7537165323474327e-05
1282 -1.1938591180555152e-07 -1.6340314983532744e-07 -1.1657280703652518e-07 2.2146861247279183e-05 7.86229963218762e-05 -0.00034357241676272714
1537 -4.905906174160214e-08 -3.412280516405136e-07 -2.8586268907400586e-08 3.333467244912586e-05 -0.00031389148841208894 0.00027295601219573523
1561 -4.3024286110486297e-08 5.210221079468226e-08 2.390361867643672e-07 -3.330305307692394e-05 0.00011566637623155734 3.024256107372576e-05
1092 -3.4206731440751495e-07 2.607032419201133e-08 -1.2627764169572963e-07 8.973764255820739e-05 -7.011662210785926e-05 -6.399740050586951e-05
1599 -1.5192095017110908e-07 3.0995538407620516e-07 7.138198588607527e-08 0.00019627196364287007 4.364106168587948e-06 5.4417720878949176e-05
2184 2.8885165474454236e-08 -5.623215222435277e-09 1.6102405250807435e-07 5.356859441410223e-05 -3.931926269665357e-05 -4.4593979012291115e-05
1783 3.1839040393890766e-07 -6.647632096141546e-08 1.1421689809901415e-08 -7.450626839951451e-05 -0.0002252261561441206 -0.00011150732435053756
738 1.5991296527831233e-07 -4.07385642882374e-08 3.2588568397309583e-07 -8.096030053399667e-05 8.832761708534584e-05 -2.9337708165396282e-05
277 -1.1921308844363687e-07 7.402604345388328e-10 -1.0353609114693878e-06 -0.000336714781070964 0.00045448754087278124 0.00016429137468039031
2179 3.925801852881883e-07 1.880954306508745e-09 -1.248371342212791e-07 4.191668703522036e-05 -0.000817485701527137 -0.00012235499491660052
144 -2.418358452532035e-08 -2.5235995974187436e-07 5.304795647977537e-07 -0.00018307626391433261 0.0002836137281279611 -1.2213552735339273e-05
1158 1.879142096805407e-07 -8.971511404854212e-08 1.6780722458240303e-07 0.0001054602748412124 -6.236767995445602e-05 1.3360817064002576e-05
1451 2.2502006554668532e-07 1.2400226616386438e-09 3.2746559243282855e-07 0.0002008898794131863 0.00038702549714685503 -0.00010817570934260749
869 -1.3313209675842198e-07 -8.996353901738221e-08 8.867747267323653e-08 0.00014498278785224591 0.0007243861070315491 0.00011155224634648498
1527 -2.884243115120261e-07 7.782966170792053e-08 5.445269211606034e-07 0.00022542408497614442 -0.0010675048807424904 7.168272823310118e-05
605 -2.277593273681672e-08 4.147447523042671e-08 1.0553793801409578e-06 0.0003667984876454059 0.001094132524319849 -0.0001775791376486487
1095 1.730531080426978e-07 1.620315681248968e-07 -3.558685225560211e-07 0.00012734520360299187 0.0015325901282353981 -2.328814114541959e-06
719 1.023112614883357e-07 1.701594168195541e-07 4.0993652106162663e-07 0.0003033885084402537 5.19926787792646e-06 1.9268679689912645e-05
664 -1.264775764494226e-06 3.7604973916693744e-08 -2.1579788288463334e-08 -5.412258009838655e-05 0.00038711478935510215 0.0004692345807035789
251 -1.307343639278853e-06 1.9987818728452737e-08 -3.8874182755837374e-07 -1.944401308353317e-05 0.000296497873440416 0.00037198741115056065
2158 2.860357843001484e-07 -3.217303059444015e-08 2.325693866196171e-07 -6.984575362266904e-05 -6.9949772210641935e-06 -1.9739168385460362e-05
698 3.5863638866550136e-07 -2.1361802197431674e-07 1.1420329261611534e-07 0.0002013854749348777 8.981078685337108e-05 0.00012965453291995715
911 1.0913948336525443e-08 6.668926970917168e-08 -1.0798717472735894e-07 -5.249128578008889e-05 -8.174667967227706e-05 0.00013557312381266989
1345 9.763489333069865e-08 -4.3151653984260146e-07 -1.8311105834608978e-07 0.0007393054747768793 -0.00019776280620551514 -0.00042010695603293566
489 3.356393109000045e-07 3.069204773643327e-07 -5.350852991479686e-07 0.00037500974034980337 2.8929730533793964e-05 -0.0005351176843662502
674 4.384246867087142e-07 -2.924221198772032e-07 -4.809576509740724e-08 0.0002422260611852398 6.616544564134487e-05 -0.00015601878011239876
107 1.2532959594015612e-06 -7.941175158418639e-08 7.448228696262767e-07 1.748898750395696e-06 0.0005448686408677563 -0.00029027485412624145
1778 3.748175454067247e-07 2.0017310663046032e-08 5.809012437076792e-07 -0.0001148094846404899 -0.00010358150521213277 -4.418004461909995e-05
603 9.911285716819453e-07 -2.682026070187585e-07 7.332537683470315e-07 5.018917968934733e-05 2.931518038761191e-05 -0.00015929189992553718
699 1.889855343993068e-07 3.118831350336303e-07 -9.6630577320321e-08 -0.00034872920207051715 0.00026786289383538825 -0.00025348526366953045
61 -4.965369605526486e-07 8.019519300102612e-07 2.8190149331392298e-08 0.00018851372497632714 0.0005236040156725471 0.0007329515524317079
2121 7.89874161916152e-08 3.2452124880031323e-07 -3.1833824100933203e-07 0.00027843603182336644 -0.0008334577020110277 -4.9221246824216666e-05
440 -6.560604968174697e-07 -4.63715904426234e-07 6.144021907566339e-07 -0.00018161381590778836 -0.0007815804908601065 -0.00034977050728540884
1161 1.8882703822036157e-08 1.1306354021406475e-07 5.658077436885676e-09 -7.811703269835544e-05 -0.00020778693145006642 0.0004491022336755896
1513 5.393749552648958e-07 -3.096247907522405e-07 2.9438612636957456e-07 0.0002967884215329353 0.00035801948792439826 3.9713867027237573e-05
1355 8.157367264997674e-07 -3.638687399108966e-07 -2.2746774595284675e-07 -0.00048771235218316323 0.00012818488708394267 8.109651299743718e-05
1754 1.0484265092200339e-06 1.0484893160088569e-07 8.897354446501317e-07 0.00015021308341924266 0.0003763208283163844 -0.00011171199406752747
1596 4.835774809573263e-07 6.439924530429249e-07 1.55423891586241e-07 1.0985503805440468e-05 0.00022519147643867206 0.00014432929200866804
1127 -2.8880965491384195e-07 5.645246490563831e-07 2.1481104087834017e-07 -0.00045298489489076487 -0.0005365676500730385 -0.00016672222451996402
218 5.735677322812866e-07 5.948476441772711e-07 -2.5774943019084074e-07 -0.0001912603719074189 -4.784290222696457e-05 -0.0003531328035295874
1242 2.0238297134136684e-07 6.829083005017061e-07 2.05998872426801e-07 0.00012452871423403766 -0.000371342003276959 -0.000617733499779844
500 -2.3032402094349127e-09 3.9300405767343374e-07 -1.2141941747927955e-07 -0.00019116674446483816 0.0005545821552155203 0.0003394309576768847
532 -1.6476377334788496e-06 -4.236348032515295e-07 2.0802420047101726e-07 -0.00016590890652282058 0.0013207416440049564 0.0006182678832322298
1113 -9.014549022968937e-07 1.1102301141031356e-07 -5.117063684066128e-07 -1.0828758673493303e-05 0.0004240514698798236 -0.000463888905375004
316 -6.040492379188437e-07 -8.65644990101681e-07 3.073882533742625e-07 0.00012721106925756926 -0.0002586305158567226 -0.00018588139582698823
1133 2.5943482585753082e-08 -2.74707408244118e-07 1.678182841029412e-07 9.460103285082906e-05 7.168290474905954e-06 -9.790540300825779e-05
966 -8.538789933279463e-07 -5.891121324057179e-07 -3.1410487686186893e-07 -0.00035586285911442216 -0.0002630254463560394 0.0003264510384883416
1440 5.984494687113787e-07 2.235124990286162e-07 -2.481634894596482e-07 -0.00027138812497330494 0.0001305947543030723 -0.0007572443052739003
1552 2.239246344588476e-07 -4.169272287180122e-07 -5.918846249562157e-08 0.0001591530354086582 0.0002572040198598735 -0.0005764393891843534
883 9.088807330571689e-07 -1.4735441817042808e-07 5.009100909356977e-07 -0.00023433018779947884 -0.00011650711657070226 -0.00013611993738443968
1097 8.151848410988795e-07 -5.032560829101397e-07 3.880496848428532e-07 -2.8656794797427303e-06 3.9696408654740534e-05 -7.574195497202924e-05
668 8.815891470890285e-07 -3.506876659145214e-07 -3.3185106567062455e-08 -1.8485063698111056e-05 0.0001632690297517679 5.198593034093222e-05
694 8.63383915598056e-07 3.9708685746038824e-07 8.124367539266029e-07 -0.00030802846683917974 0.00010052025971906015 1.5822522581728476e-05
902 5.955375535582375e-07 1.2371813919539903e-06 -9.974927374305714e-07 -0.000967700213744596 -9.442783576501402e-05 -0.0002550397534316738
124 5.902356112361024e-07 5.701931959072655e-07 7.703241932566307e-07 0.0002554956772479655 -0.0006820011168695955 -0.00014905117790927984
798 8.279428121982759e-07 5.000458786616133e-07 -2.9311217091730936e-07 7.997515983550572e-05 0.00011431558809295847 0.0002415040109186673
1173 -3.768508805697107e-07 7.214283492727594e-07 5.971949868489057e-07 -0.000978148454175019 0.00048129148777797075 -0.001333917416786095
1581 -1.2561257216154159e-08 -2.6334327741167093e-07 4.1431114266371805e-07 -4.81616585724418e-05 -7.353031218748299e-05 8.531395125362624e-05
638 -2.8269616349378634e-07 -7.644855127041118e-07 -3.1719091108740244e-08 0.0005348688817195343 -9.27533243330602e-05 -0.0005134942083827128
432 7.485640716773547e-07 -5.985732739746608e-07 4.8211641671403296e-08 9.906591615710655e-06 8.26691407900092e-05 0.00037197856294274854
658 4.4264862662957434e-07 -4.87345059116922e-07 6.980260427854831e-07 2.1666710373749654e-05 4.739632805501574e-05 5.747732077637694e-05
877 3.4480455150266933e-07 -3.628325006343099e-07 1.0479885618173113e-06 0.0002389184685010635 0.0001104536315796371 0.00021088092095878952
1105 8.540184560596323e-07 1.3540052395416117e-07 4.2556736190795164e-07 -0.00022695003197669477 1.2671460215906213e-06 1.9110412337208873e-05
1194 7.47676677111381e-07 -2.2848200231482756e-07 1.9791032612288026e-07 0.00028163756135689505 0.00015842421234256627 -0.00010194242656996135
682 6.785255632318663e-07 1.3639140661406986e-07 2.41120810076094e-07 -0.00040293989719895754 -0.00029329980408169425 0.0002617846147530479
1613 -1.383066239857137e-07 1.2474918869261237e-06 -3.431850179726076e-07 -0.0002787976243065781 -0.00011353661116275039 0.00029554483607764723
1717 -6.298010213518075e-07 1.5497374508499665e-06 -6.920844069160706e-07 0.00035222594171568754 0.00031375072115751056 -4.223942400674249e-05
728 -2.4505865940563937e-07 1.0504966752829419e-06 3.567931389715888e-08 -0.0008297483663072742 9.986200355287676e-05 0.0004583534060257355
770 -2.1003497290972304e-07 1.1193914429863924e-06 7.457031022783992e-07 -0.0003350129757771753 -0.00019982104875289423 -0.00029608745329918047
1165 -5.16785781476231e-07 5.191953316617526e-07 5.270277148876594e-07 -0.00020605551592106508 -2.252131190656781e-05 -0.00013347931723358875
281 3.651179686947187e-07 1.3418591473502902e-06 4.853851731752666e-07 -0.00026353143347998195 -0.00015412482711853846 0.0005727817074370183
1520 -1.1881124032131613e-07 6.061039124235089e-07 5.0928231426530636e-08 -5.893490996357895e-05 -0.0004012338826547235 7.751952942682425e-05
1580 -3.605950598500335e-08 -7.649753964972927e-07 4.3339753637793875e-07 4.5087763845643784e-05 -0.00023440828980518692 -0.00016279896527399395
1526 -6.667071529489169e-08 -6.655339396766754e-07 1.9683558513036828e-07 0.0001288632953607636 5.523060918004036e-05 -5.4903374808229266e-05
1458 3.008891945964889e-07 -6.541561685804686e-07 4.787483596206571e-07 0.00011363515144283358 4.7159446187622555e-05 -9.414533620945536e-05
9 -3.202570780919001e-07 2.928024829655242e-07 3.994743640466564e-08 0.0001619952304675217 5.2165678858304544e-05 7.064378046781969e-05
1219 2.0148722416351605e-08 5.327385933111894e-07 1.1652527017634025e-07 -6.264200939998874e-06 -0.00025771388018337103 9.537278793272866e-05
1347 3.2738763767033137e-07 5.910158930216392e-07 -7.176361881973154e-08 -6.19629519168636e-05 4.270072551789973e-05 -4.053344278037292e-05
596 -4.179343235881496e-07 9.373707440913647e-07 -9.539252833925744e-07 0.00040221339987519665 0.000181344805675106 -0.0004077316305512766
1217 4.7268592768392046e-08 1.7828568925285566e-06 -1.269446422019174e-07 -1.2314154420483644e-05 -0.0003037060801738347 -0.0004221866738147176
780 -1.2381843454157224e-06 2.1656459089965454e-06 -4.6407193452498475e-07 -0.0006205046882077027 -0.0002573570047293135 -2.9659909261160907e-05
90 -6.891191823265407e-07 1.6203355000482671e-06 5.584359905588057e-07 0.00043966386996239755 6.734350672558509e-05 0.00025636943641257605
35 -4.162979285171244e-07 1.4627491171271409e-06 -5.328210831412907e-08 0.00014085278716003086 0.0003874371555448758 -0.0001258816150868718
1 -2.8427900637695785e-08 1.121892123146497e-06 -1.0060838605938632e-06 -0.0004646244533060665 5.6456441318721363e-05 -0.00027821470023068403
874 2.8248247512190704e-08 1.5699392471763084e-06 -7.709147466190035e-07 -0.0010841203466354424 -0.00020698286808532384 -0.0005379917508987075
2027 -5.176987080343353e-09 -1.8675361572847955e-07 3.066244143749674e-07 3.354485039318132e-05 -0.00011576893868812236 -7.195102596400214e-05
1267 -1.5427979797613271e-07 -7.166875476305458e-07 5.044020922691178e-07 9.539317982050148e-05 -0.00014835244243639558 -8.50610629492324e-05
889 9.750718816783372e-08 -9.165089567797096e-07 7.023602758061886e-07 0.00023068697631334462 7.198179899458546e-06 -1.1050705104585597e-05
2025 3.178524300693373e-08 -5.454619538047186e-07 7.186333941019344e-08 -0.0002548836242132017 -0.0001742835772746427 -0.00019100583325210016
1085 -1.164921538120048e-07 -4.1832709786012423e-07 2.760686317403159e-07 -1.814534149828362e-05 0.0002345176610884988 0.0002313253139294635
1620 -3.1320389567282275e-07 2.7550817857464543e-07 -2.267504944132101e-07 7.240841245031728e-05 0.00010528035656249623 3.517955510250253e-05
1735 -1.446051147859462e-07 4.2973507051374024e-07 1.504157336965227e-07 0.00018111361013907335 5.942052372514986e-05 0.00020542193029735457
875 -1.5677997003864666e-08 8.989825085837001e-07 5.763205347014153e-08 1.5816616343601343e-06 -0.00010990799644720217 0.00012072043998389822
1166 -3.2118057276220046e-07 1.4295276574953193e-06 -3.3573889870228014e-07 -0.0003804828954028747 0.00036217430817716797 -4.046361574188564e-05
1938 -1.83827704993965e-06 3.5310421349634177e-06 -1.866187350447494e-06 -0.0012705858354034344 -0.0007540434439521493 0.0010418913372001774
1409 -2.485940041177586e-07 1.951249005623296e-06 -7.348098981887964e-07 2.2881186871160727e-05 0.00021905584158671303 0.00047639756016719875
2070 -1.3658639966220834e-07 9.885307278687101e-07 -1.0753001545206638e-06 -0.0005806285200787063 0.00017595987641333614 -0.000629139100010592
838 -7.843049328956008e-07 1.7108129541430293e-06 -5.842142272875313e-07 -0.0008881118408020274 -0.000634632066873199 -0.0002125877911261656
1447 -6.47988744654319e-07 1.915803534308652e-06 3.461330421654705e-07 -0.0008809133720752879 -0.00022686928510370078 7.540439685936811e-05
710 -1.3256464733690247e-06 1.8806022488168815e-06 -4.5469453372537507e-07 -0.00041895326244532417 0.0002483750270797902 0.001082418011815145
851 -9.407569103072043e-08 1.362166648080066e-06 -5.929089430302837e-07 0.0007653390271436447 0.00026884812567660803 0.0004050064319922639
1080 -7.089996748449225e-08 1.0224967056496444e-06 3.740339341275966e-07 0.0002656419267346611 0.00018972498218925582 -0.0003032279469222067
2130 2.727644022026383e-07 -4.7252142478850925e-07 2.928777441289425e-07 -4.230618251052336e-05 -1.4574970543134056e-05 -0.00032321310935057697
50 -7.380941078801515e-08 -4.5064624512799617e-07 -5.769151276732739e-07 -0.00013665602060426122 -2.2512364665694428e-05 -0.0003596451397104621
815 -2.3791123724390118e-07 5.197621845536912e-07 -1.7585978304201182e-07 2.3916744379261087e-05 3.1708940633074824e-05 8.329482695482503e-05
886 -5.936968360233907e-07 8.564380544302607e-07 -9.691313806535116e-08 2.4810128683434454e-05 7.181525900319262e-05 0.00022140622672925286
2045 -4.6447322488199706e-07 1.4718655332332973e-06 -4.4476559983605175e-07 0.0002315461017019804 9.894108561619114e-05 0.00035259002202984926
1070 4.2992607259805595e-08 3.2801303482846494e-06 -3.62904819303944e-07 -0.0010015376073641297 -0.0006890217228321391 0.0008978393197028467
302 -1.5521293510145903e-06 1.8479617955945063e-06 -4.157906345750196e-07 0.000753870762600583 0.0004596651802333896 0.0006591833485424415
997 -3.0348712058469176e-07 -3.0071370136816454e-07 4.002346586507907e-07 0.0004947425718062423 -0.0003382714770187271 -0.0001288878897525527
849 -6.077497953364155e-08 -3.965735250763697e-07 5.477956049773022e-08 -0.00015669054482764358 -0.00014699934500718773 0.00020132023069020203
2182 -7.96722994438636e-08 -8.366072427222569e-07 8.975327405832624e-08 0.00015199282235716383 6.469457100664248e-05 -0.0003888787460216959
1845 -3.75509944406809e-07 -9.695382655380129e-07 -2.233310665184392e-07 7.047492286609973e-05 -0.00042054140748076064 -0.0002833452856711107
885 -3.703075779945293e-07 9.697421435860165e-07 -2.7913995402487847e-06 0.0008714615610243354 -0.00015292970262960632 -0.00046338386550931303
1793 -1.3244454799409183e-07 1.6510375549661725e-07 -1.3859195160411406e-06 -0.0005885383712794838 -0.0007184340297599599 3.540174373933516e-05
894 1.374048473424399e-07 6.938992509830293e-07 -1.0822126444486663e-07 0.00035110542206872296 -0.00023001215935902734 -7.0429309616953055e-06
1283 -6.870822969974609e-07 7.797320109120592e-07 -3.56321874686333e-08 -7.32189441499921e-05 -8.570105893237039e-05 1.8225335436225135e-05
2094 -4.483272788064456e-07 1.6396406676665056e-06 5.039388407348545e-07 0.00017290714458487706 -0.0004280956543124383 -0.0004946282223717847
853 1.2194041254492344e-08 2.9702747118770124e-06 -4.0377662674530045e-07 -0.0006453844532383735 0.000601365506996878 0.0008962261024134279
764 1.9707148485431972e-07 1.7385144862195073e-06 2.1280325948122376e-07 -0.0004008926009477047 -0.0008551987225377548 -0.0003942206081791407
1381 -8.235819776071128e-07 2.8412666443950696e-06 2.5640855538622347e-07 -0.0014896003582349556 -0.0004605517439679547 0.0015167213217944754
275 -1.4247705974383447e-06 2.4670094781903284e-06 -8.577066830833066e-07 6.50864248639022e-05 -0.0006878406590135907 -0.0013198582117672753
256 8.744853509299631e-08 1.0315447767910799e-06 -4.390828109755369e-07 -6.361741801044388e-05 2.1384685558797028e-05 -6.384380739457e-05
834 8.62963253353321e-08 -3.2763894575682883e-07 8.953135966098498e-08 -0.0006056288818301954 6.104804409051042e-05 -4.8476745672338215e-05
2131 3.71910387998595e-07 -6.606320770893459e-07 6.524396881575596e-07 -9.47245359557737e-05 0.00015519077092630886 -1.0585858370614102e-05
1076 2.999157934512861e-07 -9.719420787903113e-07 -4.4980933578004695e-08 -6.379910498179477e-05 0.00019178712739395374 1.1290131781584948e-05
1214 -4.063213363235035e-07 4.1947479179171307e-07 -2.746246382680181e-07 -1.6066929082500044e-06 0.000666476807184018 0.0006016470777859376
1916 -1.2195619848395152e-07 9.439542270417386e-07 -2.929416249472239e-07 -0.0003259909583459308 0.00019157360873802866 0.0003751757026346773
1775 8.66266736908544e-08 1.15279936073833e-06 -4.818973591031687e-08 -0.00015299825699890637 -5.669412013052137e-06 0.0008298954120832036
260 -1.2632259203281767e-07 1.7562640818972864e-06 4.100305780657184e-07 0.00015668192741866401 -0.00010161801158422936 -0.0006146536160603037
1266 -9.662448043774938e-07 1.7196439489416512e-06 -3.187944408733991e-08 -1.132254748852234e-05 -7.716886432499466e-05 0.0004427005252924059
2033 -1.9034368463565273e-06 1.9790573522010997e-06 -6.758633468301374e-07 0.00017235357309423419 0.00015132005574872368 0.00012457194411938345
1838 -2.3085860627786328e-06 1.2943782157922328e-06 1.3896133515992844e-07 -0.0002859724759233704 0.0004156377897861201 1.2871395184895136e-05
1465 -4.038425228824194e-07 2.258947588738957e-06 7.464545135374573e-07 -0.0007723806620575216 -0.0002842168204696494 -9.951387491933794e-05
1252 -6.171616761248448e-07 1.5892937301592563e-06 5.526932160394207e-07 0.00042593160278646755 0.00013988886881191565 8.694299880640982e-05
1274 -1.0678514798992538e-06 3.3357104860248132e-06 -7.467165030318159e-07 -0.0015387126844460545 -0.00019203041733993642 -7.952026591519771e-05
1798 -9.819527351919415e-07 2.4481296357902796e-06 -8.165428017814936e-07 0.0005727981801347131 8.79766240227029e-05 -0.00013078927679938137
1247 -1.1879567366004676e-07 1.0222203755668692e-06 -7.431588187377562e-07 0.0002975491975969422 -0.0002833709287236906 -0.00014754208081623897
1989 -5.929048395972768e-08 -3.687306643311353e-07 5.443322843728577e-07 0.0005466929641280671 -0.0003577083068027653 2.802091028844944e-05
984 5.416945268283488e-07 -7.757279990022018e-07 6.18644450031669e-08 -0.0003494347001531576 -0.00017169590367742136 -0.00020197588724987816
734 6.6661775370661e-07 -6.409270104983325e-07 9.740448312539434e-08 -7.244333627027009e-05 -0.00011636139357039693 -0.00015880826123153933
157 2.547314530226295e-08 -8.980600266066928e-07 -2.278748394444723e-07 0.0001633094838897017 2.4208307282187873e-05 -5.909032682309189e-06
896 -2.4503487082348485e-07 2.053132525087707e-07 -6.673055668073447e-07 0.00024487554794930575 0.000194067626353406 0.00022796304218037454
2137 -1.8351656948591657e-06 3.713166312251103e-07 -6.393791515346666e-07 -0.0001758222683110511 -0.0007127430018808652 0.00010569253673313293
1575 -9.12637268810369e-08 9.261334037538037e-07 -4.72789640488483e-07 0.0002719271884001589 -0.00016509508527711429 -0.0005321984400904928
2098 -2.0990661034921029e-07 1.0798431814529209e-06 -2.2869753537874685e-07 -0.00011349795623120875 0.0002073817853421644 0.0004186017292297426
922 -1.0897064817244148e-06 7.303822361931588e-07 2.3640495725428163e-07 4.01472853851681e-05 0.00021785162600017674 5.0045100162820515e-05
207 -1.7344780294368597e-06 1.5733171128646915e-06 -3.4979186942915503e-07 0.0001589241576804682 8.266473569458721e-06 0.00020881886901797492
562 -1.0692117769248948e-06 2.4832859210036017e-06 -6.397981057428769e-07 -0.0008800381930176641 0.0003871219807163178 0.00038326404814254515
177 -6.810924813237571e-07 1.4845731763727826e-06 2.1760923861278537e-07 0.00010822730200205947 0.00020827395044286875 0.0005923949947409247
1710 -1.8808970371129294e-06 2.2271979099103643e-06 3.944366020703014e-07 -0.0007067877077250861 -0.000536883921887622 0.0001926020888490749
76 -3.1132266577475715e-06 3.2272320983392947e-06 -1.1882760162963872e-07 -0.0005094319784415901 0.0006657715015967537 0.00013094847858051455
104 -3.864935592296898e-07 1.110150147388444e-06 6.960664633564362e-08 0.00040118025366983086 0.00010186753255399514 -2.8240934929589832e-05
1913 1.1278654751803271e-07 -5.375161996839778e-07 2.775421995137936e-07 -0.0006068025740091437 1.5419641406936647e-05 -4.12117634525431e-05
1882 4.083237093075423e-07 -1.1641464963693018e-06 6.963964297090036e-08 -0.00018352164116213821 -0.0004035575492948416 -0.0004681295134671459
1893 4.937561351662221e-07 -7.298378213134498e-07 1.5170973053147744e-07 -6.9733426921896135e-06 -0.000469174652090546 -0.0003856721849085977
951 -2.2393197283020645e-06 -6.126815442858331e-07 9.424408199801358e-07 0.0004237068084963993 0.0001595960658757376 0.00035317658415298984
654 -1.5197791511883934e-06 1.6066439270460834e-07 2.492503377340285e-07 -9.964847863778264e-05 -0.0004062086358791815 0.000396225347683149
912 -1.6064902168874585e-06 2.8971751459054085e-07 -1.4696024257092474e-07 0.00018915637256487406 0.0003573274962208464 -0.00021830347865163576
2172 -1.2421408048805845e-06 1.966954906663222e-07 -1.8280453848163132e-07 -0.000501142376521492 0.0003900686247672638 0.0003645046220713715
919 -1.3751375510010572e-06 1.9247003266991106e-06 -4.955153185004011e-07 -0.0005216757781693468 -0.00015250888707879796 -0.0002062297939008244
1745 -1.2363522957996334e-06 1.1395024681702775e-06 3.153365754364061e-09 -5.023780857934111e-05 -0.00012134310343535221 -0.0004748313062538302
879 -1.738946071403699e-06 1.0542627755808276e-06 -1.1280385924099367e-07 1.5143756482864459e-05 -1.5429400468166702e-05 3.978784031520489e-05
1050 -1.8407574589487003e-06 1.8816852506941693e-06 -2.2608623010941267e-07 0.00016108253970396167 0.0003944796660488103 7.73970364109456e-05
705 -1.4921009859630688e-06 1.6609787466726514e-06 6.192882771410871e-08 0.0001503806273985707 -8.589082130326246e-06 -0.00014046450240552986
1029 -9.913948301035534e-07 2.685990963101157e-06 -4.6051688909943546e-07 0.0005506264139192331 -0.0003017286794670452 -0.0004730833367656367
2144 -1.6103479467225745e-06 1.9521644606921796e-06 -6.078536879108568e-08 -0.000136672585675278 -1.0761039646943402e-05 -0.0004839911088702357
142 -7.238876998552372e-07 8.236351664580052e-07 4.1190248626863586e-07 -0.00014074538354771435 0.00018341836309756555 -0.00043920239994363125
1103 -2.4274498737135838e-08 5.663150429705206e-07 1.293680789758512e-07 -2.7272354792097554e-06 9.265695395163313e-05 -0.00023735983279780704
1124 1.5998671823119724e-07 -1.671049105706942e-06 8.760859362605828e-08 -0.0006284518932881464 -1.8945425945735465e-05 -0.0004155828690687487
1262 1.6523703757865385e-07 -1.2808588882045092e-06 8.858459327655069e-08 5.2621917191184306e-05 0.00018786847816572267 0.0005141885289437843
454 1.6254810450710285e-06 -9.222886093087124e-07 3.5342711940559526e-07 0.00018338209053205947 0.00028906653220292744 -0.0001400029776439003
312 -8.557261103072401e-07 -1.0203219710163524e-06 1.0410603840104724e-06 -0.00047947394891209507 -0.00015353301976516622 -0.0008541633738932679
2108 7.176613069137469e-07 -1.026330980016261e-06 -4.156604348195617e-07 0.001029128646896342 0.0007092775488356062 -0.0009314598351762864
1528 -1.2927673733289472e-06 1.6561002924056366e-06 -7.242704175596136e-07 -0.0005814516877917942 -0.0001505286230439791 -0.00032831398887460324
1805 -1.2226630061755571e-06 1.2102463184217906e-06 -3.602142552509625e-07 0.0001806800900163743 -9.751607150624418e-05 7.092368213428121e-05
2167 -1.4048988196080212e-06 9.970527410827e-07 -3.052451394468922e-07 9.141609311052732e-05 0.00044121508229665117 0.00042367011013382037
1634 -1.697971199994976e-06 1.6865031075259253e-06 -5.154761064145653e-07 8.469901412220325e-05 0.0005491022228249862 -6.575791372773635e-05
1654 -2.02444618697973e-06 2.0222195678565682e-06 2.919393813686232e-08 -0.0005009553372454534 -0.000747894760370022 0.00010425378667241754
1106 -8.253632370983722e-07 2.050269569140938e-06 -2.71358829353846e-07 -0.0007201308480484859 0.00041186877449479834 0.00021565515910164409
259 -4.682813748317268e-07 2.20157346437459e-06 1.757668511681377e-06 0.0006246057682684484 0.00015705328977083015 0.00012259488403270442
1647 -7.704541900292029e-07 2.981091243546214e-06 7.513883872777647e-07 -0.0007747911005565415 6.898620747848194e-05 -0.00015991041512311048
1512 -4.4702486108107317e-07 1.6131845539744896e-06 3.5882318224054135e-07 -5.824747775451206e-06 -4.924188534708218e-05 -0.00024246939697163884
1502 -4.6252134758988063e-07 9.184120307697657e-07 4.3979541014764306e-07 -5.686632125751162e-05 -1.3886907829023971e-05 -5.0699638547721355e-05
1967 -1.4661029447738261e-06 -1.0695293234946838e-06 2.2510611684203027e-07 3.117211113536698e-05 -0.00014345747430056848 0.00015512014377376133
1477 -1.8928304391249963e-07 5.576557528372174e-08 -3.371714706082742e-07 -0.0004414236925734632 -0.00025975648192612535 0.0009684338555933702
1363 -7.347890664975868e-07 -8.731723745891438e-07 -2.5183969177342907e-07 0.00042669978047883293 0.0007415539321296102 0.000998440580002529
1858 -1.0087106572150525e-06 3.4858380813196425e-07 -3.9456738232928183e-07 -5.186072579102669e-05 -0.0006221296159423883 -0.0003766945306306473
1796 -5.326408124701857e-08 -4.504976841589847e-07 -2.7106213326010455e-07 0.000542405521161802 0.00026360677645160125 0.0008528360556021852
703 -1.8829514493366066e-06 2.200416587730277e-06 5.974913193473273e-07 -0.00022502876256378444 -0.0003023746804149115 0.00024067406014104006
844 -2.125312487237144e-06 1.9660605509886005e-06 -9.20887512181244e-08 0.00020432958187398454 0.0005492161106997053 -0.00019627923415238406
1178 -2.6361380213820036e-06 3.0557665180914007e-06 -3.2919450296371306e-08 -0.000341694997715717 1.8644082902848753e-05 -2.284930129854799e-05
865 -2.0664561794753977e-06 1.7559534826460994e-06 1.4435922271534202e-07 -0.0004966961527559758 -0.00030590284057456626 -1.7675892762654313e-05
1206 -1.7886863319848623e-06 2.3873759366197153e-06 1.1214251236399393e-06 -0.0007719451147535184 0.00022480984189371194 0.0003887237075417997
504 -1.3696696023579399e-06 3.5825374853911835e-06 5.312301575647283e-07 3.1225930267051264e-05 -0.0005271377120199972 -0.0010023356612882163
1973 -4.1878405090491317e-07 1.0568989358092244e-06 5.140875062587078e-07 -1.893042708146245e-05 -0.00010270490050408968 -0.0004986809099986181
1562 -6.377546441137663e-08 1.8261884176261747e-07 2.947610498664791e-07 -3.5938288467869404e-05 -5.687762950067311e-05 -0.00014920505450292867
2116 -2.926871300110876e-07 -8.318443237328413e-07 -1.330141257430694e-07 -0.00011281504435785393 0.00011902019639925647 9.781898484751606e-05
1278 -9.125689859193683e-07 -1.03784056958682e-06 2.8877758819399824e-07 0.0003001704469736132 -0.0007242008858801493 0.000382007091774047
2174 -9.676455430266955e-07 -6.341532815596092e-07 1.0200470867149799e-07 0.0003280445815040364 -0.00027836129964532426 0.0005674937744261155
1890 -4.5580412030844896e-07 -2.8786782527532684e-07 1.2006912990755722e-07 0.0002748998803620932 -0.00030998199448059165 -2.4741849049796343e-05
1772 -8.991323583030158e-07 3.194902471549049e-07 -2.657395485040953e-07 0.00017935969373791824 -0.0001729334146892584 0.00014228194278756063
1883 -1.4518063937565804e-06 -9.740891152607019e-09 6.453781843238807e-08 6.0047574244615234e-05 -0.0001274299357523203 -0.00028941943139241367
1971 -2.7159464449269806e-06 1.5526804292727504e-06 -5.638045978659548e-07 -0.0007146836296439107 2.4313158241810755e-06 0.0006929046182797573
2081 -2.2717676036560256e-06 1.8932034641740903e-06 -6.012754291138095e-09 -0.0003463900523633815 -0.00013889788362859921 3.0258185842049388e-05
1600 -2.211183375764079e-06 1.5385110619828718e-06 1.3285500208002917e-07 -0.0005245944730261333 -0.00032677687348234123 0.00025608213497634854
1169 -2.213288213365048e-06 2.0717714605259855e-06 -4.427576928281742e-08 -0.0007103761512843581 -0.0016252420164210677 0.00020176358200126902
1902 -1.6027218108522486e-06 1.9275370126729327e-06 -4.956862647421627e-07 -0.0004137954382328244 -0.0005878018287724412 -0.00023896054428579466
1780 -1.8738537840171275e-06 2.7013850586295745e-06 -4.645852879178232e-07 -0.0003076680488338209 -0.00011519044929341061 -0.00023759030776186204
661 -8.46215016197134e-07 2.135720974527658e-06 -3.896185049377483e-07 3.2704608921960005e-05 5.043385487765543e-05 0.0005526030258639644
847 -1.4153478306999405e-06 1.5648077102559323e-06 -4.410516583851734e-07 -0.0004994445017617601 0.00018892870902978057 0.00031197722797422106
1306 -4.866880222063596e-07 1.7162583041492188e-06 7.640559004850607e-08 0.0003421151065970469 -0.0003750740463380539 -3.171858904497579e-05
2082 -7.881919702479122e-08 5.231699817445235e-07 -2.7751825950790013e-08 -0.00011381890490632945 -0.00011112541839769167 -9.605988520240897e-05
1942 -1.074768854554419e-07 -5.685902108356705e-07 -4.828146220259097e-08 0.0005136378230077063 -9.969297843300647e-06 -8.960938098107998e-05
1290 -3.7022048954984817e-07 9.880057867438581e-07 1.0151358828779602e-06 -0.0012140413030419343 -0.00010777513707500279 0.00037206933309080916
1962 -1.6007125237146762e-06 -1.7864309794689706e-06 9.092434216933495e-07 0.002367702054249425 -0.0005857281554638038 -0.001352221910453369
1083 -4.173884792089285e-07 -4.85649945711868e-07 4.4009639564454244e-07 -0.00010924785675543775 -8.717214332315385e-05 -0.00011840624151941019
1932 -8.889702910041091e-07 4.827274334528362e-07 2.357580709646116e-07 0.00029357515843828974 -5.136700911012872e-05 0.0003752416261577407
2170 -1.4319962800748846e-06 9.948093422026865e-07 8.813350350389486e-07 -0.0001088901794316525 0.0005985467538288361 -0.0007057463912176576
1400 -1.4627983378921563e-06 2.751249340497435e-06 -4.776756002163014e-07 -0.0003910281926992132 -0.0006890005115609329 -0.0005797998338618081
1922 -3.184931049950815e-06 2.5424443540207673e-06 -6.18152006385186e-07 2.522565928263573e-05 9.828379721818782e-05 -0.0003081730010399682
1978 -2.169315654773484e-06 2.1392668015343695e-06 -6.489803346109824e-07 -0.0003293237003078186 -0.0003918623009538688 -5.003637372006718e-05
1860 -1.5892197041710493e-06 1.9381495002536878e-06 -1.648721543024913e-07 5.5998332775356595e-05 4.163606024419335e-05 6.783100636283667e-05
1196 -1.5011295365658103e-06 1.8368401174232864e-06 -1.3269337284066558e-06 -0.0004603123947315247 -0.0001137538705066803 -0.0004144460435250841
1648 -1.6303189901464348e-06 2.6786328759768712e-06 -1.2239213498455937e-06 -0.0002611025188642514 -0.00016792120117805294 0.00020915261538562762
2117 -6.788296918633632e-08 1.1426191851547151e-06 3.362524066772937e-07 -0.00013548668123174502 0.00044413296441439174 -0.00015775804864672207
2032 -2.1456407769482018e-07 -3.424619711430931e-07 -3.854062154781835e-08 7.506408577331979e-05 4.434885032444331e-05 -4.783622469474626e-05
491 9.354348013101077e-08 9.45645165596672e-07 1.081454477763285e-06 -0.0005826390625045461 -0.000376092202300367 0.00073316583591942
1027 1.2013500288460271e-07 -1.7660540586465872e-06 1.448772302428778e-07 0.00017609570778933737 -2.9571030801696936e-05 -0.0003223575128946865
925 -7.949793308688035e-07 -1.4477071861939125e-06 9.209114625725763e-07 0.0005538247719857855 0.00014043159539894225 0.0006692291536722346
956 -1.1261637431430181e-06 6.164938595007659e-08 1.7408080384114065e-07 -7.307948093693132e-05 0.0002091718380100972 0.00026874016786108094
1326 -1.611506023167851e-06 8.059274794770737e-07 -2.9241826236313305e-07 -0.0004142612575023051 -0.00047824990678125255 0.00013695342181054007
2011 -1.2859787719996046e-06 1.4334427661192013e-06 5.735969798885855e-07 -0.0008908587055684776 5.245933291975376e-05 0.0004658359689183455
1955 -1.2396459894508602e-06 1.3098757735443703e-06 -1.0907972530887126e-07 -0.0001673644387723208 -0.00023759458091459978 0.0008065393697749293
1844 -2.199794279141346e-06 2.185045335144809e-06 -2.182088537665337e-08 3.2270849113141765e-05 0.00013885837132455227 0.00040951233240513695
1709 -2.388678498656928e-06 1.7564401710470944e-06 2.720867836675366e-07 -0.0007625906611812567 -0.00012646987289923682 -0.0005541565430685072
1497 -2.3070607156657817e-06 2.1887685267261127e-06 -3.4608470626778704e-07 0.0004301671203132875 7.567283524396753e-05 -1.8757102059559836e-05
2060 -1.8798787836069946e-06 2.0258316104857216e-06 2.2891197495518462e-07 0.00036224578972279624 -0.00033643924564608784 -1.0144045548667417e-05
2148 -2.2749571656877715e-06 1.8640036095656053e-06 3.5593018796951395e-08 -0.00039698358175143056 -0.0011198831239029087 -0.0003375024992353362
1153 -9.946587041439462e-07 1.707838817112302e-06 -6.553977366042361e-07 0.00033820678891238715 -0.00012635313032973754 -0.0004731213736304333
1949 -6.204143852485572e-07 1.0055126165358398e-06 -2.9726956727302396e-08 -0.0004645959855205093 -0.0002331568095808465 0.00025301796871430335
1941 -7.892961102496332e-08 1.2965494985730486e-08 2.369085485133088e-07 -0.00028810669025348663 -6.590471595588884e-05 -0.00019733275202513649
407 -1.083778791435075e-07 -5.282363425931385e-07 -4.008948587304781e-07 -0.00021609142147469227 -4.041795851103327e-05 -9.810058035482519e-05
976 -8.389280108796431e-08 -5.677123643165825e-07 -2.57631583595317e-07 0.0001294065615674524 -5.4582398572373944e-05 1.8875787130986673e-05
1887 -2.895416301666947e-07 -9.7565306908921e-07 3.7506845394174323e-07 -0.0008380545305236211 -4.085376991485872e-05 -0.0006856924133180099
1077 -1.8863018156120958e-07 -1.8295591898776256e-07 1.1543548083486211e-08 -0.00035048787075205956 3.407489842559431e-05 1.4923343887787393e-05
1439 -7.965909831239784e-07 -4.844803066050436e-07 7.780539416089774e-07 0.00012812930872150457 -0.0003908633280284127 -0.00011897664446957144
1457 -1.8416005272017772e-06 1.4544884037592564e-06 2.3525138956747743e-07 -0.000125216823102114 3.989229194525766e-05 -0.00011650421810572447
2134 -1.7994255565163325e-06 2.2836204199204865e-06 8.928317481019763e-08 -0.0001939016838731057 -0.00010989039859822362 -0.00010322647076503815
1707 -6.30667293186048e-07 1.4639206624730648e-06 3.1877563287157857e-07 6.463794892927522e-05 -8.885343278702377e-05 1.3686433900709097e-05
1162 -7.545103140935467e-07 9.427108696054971e-07 4.361276707299096e-07 -0.0002510222093799038 2.8749688692098635e-06 -0.0003923009340144774
1880 -9.357585772369549e-07 1.9347210321902317e-06 -3.231685045996228e-07 -0.00016364906178243667 0.00021992911847926698 0.0003046738268900914
1866 -5.472878811192561e-07 1.251840052055544e-06 3.83239401464073e-07 0.0006818432242803633 0.00048551499536980984 -0.0002540143563328937
1828 -3.171965569466527e-07 4.301961895320937e-07 5.779795355368981e-07 -0.00022271138287203936 0.0002006895082035488 -0.0005332051158996705
1722 -1.1196548332160013e-07 -5.516836391769182e-07 -5.822910434625652e-08 0.00028950545551657185 -0.0001199199365453337 0.00026461639890062923
295 -2.426079553145728e-06 -1.7202455613530739e-06 5.354221689942866e-07 0.0008449985426839945 -0.00034162383745408605 0.0009836477838411387
1826 -8.411708341658788e-07 -2.5347217928474476e-07 6.54790288582391e-08 0.001204886027000885 0.0005602227180106094 0.0007665968576925872
289 -8.497492732988756e-07 -7.900212737213638e-07 1.185664096189304e-06 0.0001747787589479981 -0.00047451645065878635 -0.000562112050794787
1792 -3.894477877632561e-06 1.0151873450767687e-06 -6.505801819826516e-07 -0.0009261728642093987 -0.001387215588807972 0.0008456551379150517
895 -1.6731322479827728e-06 6.956943500452332e-07 2.2449413095731674e-07 -0.00011910651058510624 -4.8504555622582755e-05 0.00023656336244210654
1128 -2.0233014848600506e-06 1.960208772553615e-06 1.779127587793101e-08 -0.0003020113205900087 -0.00031909344350019284 0.00031737272659028854
1111 -2.0693728503125116e-06 2.178255782361663e-06 3.2955028393640557e-07 0.00011699817958953169 -0.00047828398865951745 0.0004395500252301467
1382 -2.2073026365095994e-06 2.4630121276740053e-06 2.070983940096014e-08 -0.00013300583729930926 -0.000981965522283347 -0.00017871271702892843
1642 -1.6872305559496325e-06 8.652926258659707e-07 -1.6256041234072663e-07 -0.00030785801327358654 -0.0005872037407783854 0.00015776985946432486
964 -1.6833673062840369e-06 1.8369956428882322e-06 5.379965786757795e-07 2.4276214763134393e-06 -6.92227561066607e-05 0.0003103026039904076
1328 -1.2595454477951538e-06 2.0330683501961765e-06 2.2646110329949524e-07 0.00040769482786126517 6.690512940181424e-05 -0.0002510190146727343
175 -4.88753395696753e-07 9.220960130600148e-07 2.2314368438484169e-07 0.00011772707389118082 1.0710609794818545e-05 -0.0005225304395848491
827 -1.0574647445078392e-07 -1.9324131170970682e-07 9.433912784039763e-08 0.00019504204962990046 2.6549137168804492e-05 0.00019407624154639785
848 -1.9975531788182257e-07 -7.340533528544337e-07 2.784454152260913e-07 2.6152617753786533e-05 5.7700156401287585e-05 -3.6526517666551117e-06
354 -1.7047187326014328e-07 -4.652284383067897e-07 -1.2163870040379068e-07 0.00023488686032475652 0.00039475734489332747 -0.00034354639268003467
1819 -4.827834044805055e-07 -1.174518418474306e-07 1.8230879420957455e-08 0.000467361504718087 0.0004709888502967178 -0.0002800574398589717
1129 -4.982188712629233e-07 -3.492477688492562e-07 -9.848394211731906e-08 0.0006770418383485251 0.0009022894530236577 -0.000724388611607343
237 -2.008744435913512e-06 -9.711410380950563e-07 3.564257897899376e-07 -0.000993147230409675 0.00042434418760593947 8.562737363552299e-05
1688 -1.5893715742771235e-06 -3.3870619280800077e-07 1.019111157432097e-06 0.00015019041349793492 0.0008708098303670743 0.0005631119101124163
1595 -1.7292262185582819e-06 8.136060435466542e-07 4.7598334724762306e-07 0.0001672666895849861 -0.00020823075825527807 0.00016851604289715654
1995 -2.163614511908881e-06 1.732591275752699e-06 9.452655526713186e-08 -6.965461826924167e-05 -0.00039255956449951707 0.00016312457842195964
2044 -2.0250958485484272e-06 1.800804555683068e-06 -4.732467428733599e-08 0.0003662933301278492 5.833149307679708e-05 -0.0002246601122226998
993 -1.721150397800156e-06 2.4693929160780204e-06 -7.541127800645791e-08 -0.00017457483399567188 -0.00011579062662804373 0.0002148332120859258
2157 -1.9704070650715047e-06 2.002959384498171e-06 2.4215271577997047e-07 -0.0004845789885210566 4.93697463489365e-05 -0.0003611996335834798
1961 -2.8632953484257474e-06 8.427207252842981e-07 7.342603105202063e-08 0.0005419526887176346 -0.00031494496733327365 0.00014215694654011915
1276 -9.918230307169434e-07 1.228232754528984e-06 -1.5441226904675447e-08 -7.502040196483853e-05 -0.0003530602389620073 0.0005754651056001244
1078 -5.691547708638974e-07 -2.42378801959285e-07 -3.901103530474235e-08 0.00011154652609426096 -0.00028552255747993225 -0.0007864863684827427
2035 3.415842610211899e-07 1.8953613609319004e-07 6.790738998696592e-08 0.00026896912787309637 -0.00017158391815649848 0.00027423084643230883
441 -2.0924866641624764e-07 8.613902571512956e-07 -7.170579928585509e-09 -0.0004867211759442726 -0.00022288453616682222 0.00014970730851605554
1253 -2.961000615625174e-07 -2.347639832747527e-07 6.711144564601777e-08 -0.0001780882370963515 -0.0002275474919372546 0.0004179059273599378
994 -2.6539221081861226e-06 -1.5147340626649092e-07 -8.76416332704236e-08 -0.0008208441627080752 -0.001139134019427999 0.0004009894721159562
574 -1.6245076249816875e-06 1.246835019746689e-06 1.2271420785801249e-06 0.0002863284675184079 0.0008678304490762504 0.00033113769228438207
1304 -1.9923955524885366e-06 2.037569744599834e-06 -3.540838455561698e-08 -0.0001534118620539042 7.700963053132909e-05 -0.0009504836603075982
1579 -2.179115483413789e-06 7.580768240733567e-07 5.660468902521997e-07 -0.0005810604726926436 -0.0006142616589940909 -0.00030283474345041986
1414 -1.0800021783650304e-06 5.768231993290112e-07 -1.2692113590292263e-06 0.0016598043876571635 -0.0008961429026053291 -6.054967727006642e-05
825 -3.5611623776286143e-07 7.55623794848852e-07 2.431490165194502e-07 -0.0004772266622469019 -0.0003275096823410157 -0.00025187160688675903
909 -5.753385184203323e-07 1.303276311266723e-06 2.1964413857902725e-07 -0.00026886797286168336 8.224388055409503e-05 0.00012060985052730051
1212 -1.385288231861343e-07 4.966996626682241e-07 -1.3722967256927694e-08 0.00030246127600988093 -3.751243315985067e-05 -0.00011929618166233637
1566 -6.32837090917739e-08 3.1758122137993043e-07 1.3800182280976115e-07 -5.748800711133926e-05 -7.970326526623323e-05 1.8825754772302378e-06
1686 1.0184114386192075e-08 1.6582355656143606e-07 -1.7553801172360535e-07 0.0005114471357091517 -2.233686401509354e-05 2.4625161310353122e-05
2092 -9.642715435911208e-07 -6.652946471344329e-07 1.3473752596445818e-07 0.0003750561822458677 -0.0004863975391220596 -0.0005279613253897468
971 6.429525191536856e-07 9.968390659317778e-07 -1.5551691009533704e-06 -0.0005990730271172756 5.124787972209627e-05 0.00030088672975845006
451 5.621052607199623e-07 -3.8576503400943296e-08 -3.8392643170646497e-07 -0.0006593344882163461 -0.0007900778083415273 0.00012408781595768458
1383 -7.535258198835426e-07 4.2528016190766876e-07 -3.010964823427333e-07 -3.4503884266864747e-05 -0.000570622663088991 -0.0007094147416741166
535 -2.787229426757681e-06 9.125403719977489e-07 6.778038889224242e-07 -0.0002935426524722967 -0.0005275533151485983 0.0006100940141288377
1469 2.1563084143792813e-06 1.8351597861641953e-06 -1.2422032656249102e-06 -0.002450074210007667 0.0028256965428166293 -0.0015870497185155965
1763 -1.1598055510062266e-06 1.6668922912808557e-07 7.97549329896492e-07 0.000664200937307878 0.0006367700235489199 -0.0007423575240489308
1608 -1.478682692029379e-06 1.3414183153341467e-06 4.6055311695284325e-07 4.365321301777171e-05 -0.0005202402485364134 -0.00021183344016277881
1410 -3.3647248194836296e-07 3.3025314604714904e-07 3.5342711822759e-07 0.00010071065720725433 0.0003635299921036511 0.0001485002273532506
568 -1.9069634940395533e-06 4.947432119301515e-07 2.562921688951471e-07 -0.00031796741489550294 -4.520166937568254e-05 0.0002618890728082499
410 -1.02757804501804e-06 1.3196552500509523e-06 1.6233221822086926e-07 0.00014115720552081428 -0.0001559499797889696 0.00044626159150249633
2096 -1.224799540097755e-06 4.2022720674054585e-07 5.593666612639127e-07 -0.0002524855113026208 0.0005086538086267987 0.00031093624816345907
840 -4.5399379457098115e-07 3.96541677893399e-07 -7.565356269308459e-08 -0.00033157566648298303 -0.00013931678317637153 0.000194312021315072
1412 -7.625940577284426e-08 3.159214978579758e-07 3.837583762019823e-07 -5.5557588746842535e-05 8.152309693156615e-05 -0.00012942151832849176
1658 -2.90691508191009e-07 -4.163034229820758e-07 1.4806809075341893e-08 -0.00027923397766017725 0.00014540072992397243 2.6499443984023017e-05
1361 -2.7503889458742684e-07 -2.499330495127241e-07 -3.6344832563862796e-07 -0.00017521484666595466 -5.1703269553062796e-05 0.000202342258275189
1728 -2.8966746874034406e-07 5.580865999316672e-07 -6.10114470906522e-08 0.0002610447193123966 -0.0007297394216911795 -0.00046156196627465093
60 -3.4622050987245244e-07 -4.879650472918089e-07 1.023324693150855e-06 -0.00034554528582840055 0.0016474379811832669 0.0017472452961786312
1213 -1.8707845514406245e-06 4.7512454510788236e-07 -2.564715122825926e-07 2.3694078024315326e-06 -0.0002776637928559931 -0.00010321190848776489
1318 -1.3491707331171743e-06 1.5469604676123034e-07 -8.797260556474426e-08 -0.0006563038285741233 -4.128765643333639e-05 0.0006852262339700915
72 -2.3303309182411965e-06 9.471565707337801e-07 4.240132603237278e-07 -0.00034576492283285845 7.706770894016265e-05 -0.0011675050960850914
1951 2.7699771541372452e-08 4.81582646175389e-07 3.3189742503555053e-07 -0.00036861497281790345 -3.0261455527703544e-05 -0.0002217378237456781
1003 -5.972553278138319e-07 1.7046389888000291e-06 4.797011096651912e-08 0.0002148732124989676 -0.00030784504316087044 -0.0009706074669056883
1824 -6.507712463106776e-07 4.249550990521495e-07 5.139969296441577e-07 -0.00025622120257738645 0.00011434087547369071 8.827579819598536e-05
859 -4.934900098625731e-07 1.7160339357875064e-07 4.788586583611783e-07 0.00034444519802119235 -0.00012743416927608629 -0.00026299352979283254
2 -2.0385004754238164e-07 1.4741733423864698e-07 3.77095947120609e-07 -4.451253124661061e-05 -5.3881016574069565e-05 0.00018106284241545086
1131 -3.4655324072059924e-07 1.823687226177629e-07 6.573829085606805e-07 0.0006301515345828921 -0.0001680552215636142 -0.00021935802371884813
1258 3.260938938712758e-08 2.1477925033878276e-06 6.250661231988954e-07 -0.0007428490010380124 0.0007902399399277595 -9.177490739345382e-06
1490 -3.1906235253872906e-07 1.4666017512095968e-07 -2.415650018992832e-07 -0.00020435102518855797 -0.0006804214258267395 1.8574094207017233e-05
1586 -4.763625090434953e-07 9.028651731601263e-08 -1.0299351342823508e-07 0.0011835158644136 0.00037111225343935305 0.0001440486595496075
1821 -7.097925356667546e-07 1.4221981760443952e-06 -2.7789958519421814e-07 -3.966757201437597e-05 -0.00018067246769564886 0.000948867806524694
1041 -8.472840874603303e-07 5.486244572156647e-07 3.9190755554262555e-07 -0.0001332427819277711 0.00017281149669559772 -0.00014713454623316625
1039 -6.828521328025393e-07 6.640757646180913e-08 -1.456603114129334e-07 -0.00016005126792264103 -0.00010166485732268312 -9.09056697857958e-05
1567 -5.799798544700086e-07 4.4992352306161203e-07 3.150129324686628e-07 0.00010469072922110512 0.00016165794406038675 0.00014858925248169074
1073 -1.6274880175913556e-07 1.3020852450834104e-07 3.004555400384015e-08 0.00018342954242870046 0.0001681150205203577 0.00022793828462967986
553 -1.6139990666993845e-07 7.323444215709498e-07 7.853264799231013e-08 -5.76056268253345e-05 -0.00019202426162616908 -4.298299387392937e-05
1481 8.500970207137012e-08 -2.3149863034403787e-07 -1.1451921530198087e-07 -0.0003271241752270292 2.150532462989454e-05 0.00024279253444825941
2173 1.224674288487646e-07 -1.0850772124481934e-07 -1.6672307572162782e-07 9.290308926671162e-05 -0.00012508563357949907 -6.909280852977847e-05
1825 -6.365768092315047e-08 3.2482700391388763e-07 -1.6293944796155996e-07 7.656622984388612e-05 0.00017265753946551062 4.665939157965701e-05
1028 -1.5422121586404595e-07 3.8406017725478255e-08 -1.1821545720208912e-07 -2.0790046101255994e-05 0.00021374696100938422 -0.00013890126788231554
900 -2.5947863155952143e-07 4.2276856201970484e-07 3.5363469773793644e-07 -0.0003276200884771333 -7.48772633827607e-05 8.780332036127779e-05
1663 -2.0691792048974275e-07 -2.2967896240734582e-07 3.8102803205407763e-07 9.930903816003962e-05 -0.00012984494819418164 2.9781493870138397e-06
1086 9.171407236522997e-08 1.2660594643483678e-07 2.423488215838459e-07 -0.0003001443577697126 0.00022208333410245437 6.828970180983473e-05
893 -5.420088981433799e-07 2.3808205045417922e-07 -7.989687715566377e-08 -5.232502476837436e-05 -0.00024006753910901714 -0.00010485662241263668
1794 -5.928287589598658e-07 7.281976452854049e-09 5.96926619294976e-08 -2.873619807228302e-05 -0.00017503368089596348 -7.74475231225716e-05
1444 -4.198041218304633e-07 5.180641311157064e-07 -4.31663426764131e-08 1.3153455801550086e-05 6.476540144954732e-05 -1.2805357170555634e-05
1872 -3.656123534944012e-07 1.3067833527302312e-07 -1.9617703051581556e-07 0.00012838675910815584 -6.264817162301255e-05 -0.00010292362399131229
814 -3.2962677292628115e-07 -3.4518858437445944e-08 -8.15053582964797e-08 -9.431250852675479e-05 8.917613259466162e-05 -4.9568227107692675e-05
1741 -2.2440256746852068e-07 3.095917021331804e-09 5.534293897225065e-07 0.0001734661984425482 -0.00019724521423076773 -9.180649584393536e-05
1259 -1.2603117618168386e-07 1.1823610206410334e-08 2.1428225877173227e-07 -2.9363853332620023e-05 0.0002651733471093329 1.732523116694358e-05
1112 7.590747014319274e-08 -1.4876038214888473e-07 2.254905353944694e-07 -7.175016574546679e-05 0.00016101974596846214 0.0001253422157514816
1563 4.401064806371813e-08 1.9178734758287713e-07 -5.784297219602148e-08 0.00028879077865220085 -6.245980255683298e-05 3.4823356743395616e-05
946 2.558253000019454e-08 3.5369933520929796e-08 -4.513795563981315e-08 4.912812023913992e-05 0.00013663442157676732 0.00013526978171774195
211 -8.963876267331551e-08 7.004485084128034e-08 5.4554782164428e-10 4.3282456091634685e-05 -0.00020854339105273856 -3.3706687807070104e-07
85 -1.1905768559607031e-07 1.459286876533421e-07 8.450438092612281e-07 0.0002878084110458799 -0.00027096500689080056 8.716703039213725e-06
263 -5.309733257585458e-07 1.0700263724327333e-07 -3.8081389009626064e-07 0.0001807849576250235 -0.0007941156237119737 -0.00010487616058336149
187 -4.561118549138975e-08 -6.452120864767748e-08 2.569315725592007e-07 -7.934637596455209e-05 1.514393426720095e-05 -2.1169235431245717e-05
1348 -1.6094845360959658e-07 -2.4009975593480244e-06 8.435100823137499e-07 0.0007706881744273705 -0.0007330355940720135 0.00013712738227642817
1064 -5.2072352181400365e-09 -1.0088877603041271e-07 2.854306954223053e-07 0.00011137888005067836 -0.00014666251192488653 -4.5999811406924416e-05
5 3.680143022838193e-07 9.068454360379043e-08 8.451831387953907e-08 -3.354086223232405e-05 -4.8786010958018974e-05 -5.599358107418622e-05
2190 1.7731603051065528e-07 3.4576062398114046e-08 7.997501346764846e-09 -0.0006965797724693226 0.0005355321762769539 -1.6554966442887247e-05
192 -2.4055957467484557e-07 8.476273931346556e-07 -1.3809441915434499e-06 -0.0004732097061323009 -0.0002659600934871366 0.00025193991378362447
359 -3.5023433001859324e-07 6.234686935036578e-07 1.8131490230708385e-07 -0.0002218579410874739 -0.0003283747330642803 -0.00015868630328173957
265 9.715451535971423e-07 -1.2610163311019713e-06 5.780977455760673e-07 0.00012036664705983993 0.00022169344295439852 -0.0007998827410525911
743 1.058060293925551e-06 1.3466240073800428e-06 5.296629455860461e-07 -0.0004660561721790283 5.964496651599048e-05 0.0004974001659121926
751 -4.102381885232592e-08 6.183580337078145e-07 -6.041254697968575e-07 0.0004649792219700605 0.00020165953554510452 -0.0005062358802044125
304 -1.8046962627899796e-06 -2.442241577010854e-07 7.382141236854817e-07 0.00014025502316730192 -0.001082867344039829 -0.0008430296838411343
1187 2.3075663971574853e-07 -1.0516391519766195e-07 4.0447315010413403e-07 -0.00016803568070388773 0.00036471408372963366 -0.00014725566871869126
242 2.0937983864584722e-07 -8.10534763886e-08 3.200058844414906e-08 -0.00029011568020070335 0.00010442333165375374 0.0001275317315893288
1840 9.747871207952772e-07 -1.7006556145478356e-07 1.0883822781562458e-07 0.0002126542509593364 0.0005616455958306657 1.7249917106610435e-05
1235 3.4122250100848923e-07 -6.696468756034757e-08 1.247310511127298e-07 -4.413884509622709e-05 0.0003370723969306021 -0.00020399560714273697
443 -1.9428301735133018e-07 -7.025187708931626e-07 1.127416513345144e-07 -0.0005361099652582921 -0.0006444869052948697 0.0001961289896522308
1385 -1.1092118722495244e-07 -5.741905377325142e-07 4.2833036531508315e-07 0.00012683210404991482 -0.0007484141661177342 0.0004297655941556369
1392 9.656968986142566e-08 7.437298792261748e-08 -4.640395739883142e-07 -0.0006348458280715318 -0.00036325898472953076 -0.00017376911235309072
307 2.67084309736005e-06 1.2731334301272899e-06 4.4436840302524606e-07 -0.0008140149388446652 4.8102136556909946e-05 0.0005871752451160921
1141 9.963696014530278e-07 -3.9440091624918584e-07 1.0438006668357854e-06 0.00018439905080024064 -5.326944711406896e-05 0.00016475587494542372
708 -1.8944411358794508e-07 8.188944172586956e-07 9.246069504477343e-09 1.6501585854788798e-05 -0.0001411035127338782 0.0005389934000939435
1356 1.1279314248876236e-07 5.48745262748811e-08 9.714569067810225e-07 2.5883004901823812e-05 -0.00016775074550005197 6.91507626309883e-05
1557 4.122026078874533e-07 8.842586605710579e-08 -5.085442073857884e-07 3.814380456045078e-05 0.0008939470840312896 -1.751789540939001e-05
1668 1.0966003458667043e-06 -2.3695322508676822e-07 1.9628320900780014e-07 -0.0002362508413273976 -0.00017931229201512185 -0.00013408481777420184
975 7.941286582891558e-07 -7.169447780773257e-07 3.125378619790829e-07 -0.0002036016743015158 -3.6363071291317316e-05 -0.00020888564035555346
467 8.17943729206121e-07 -4.978747556486478e-07 -7.444684961610724e-08 0.0006923066068652637 -0.0001950362992383769 0.00012150781876045466
735 1.0928858410660467e-07 1.8888616150971326e-07 -1.8514815423294215e-07 -9.367592194326836e-05 -0.0010729662631903127 -0.00029285961877700324
647 -2.34355106403342e-08 2.453869908995562e-07 8.502207685261978e-08 -0.0003786744514722851 -0.0009338698689853756 -0.00021766906106271929
203 7.682244887237901e-07 2.376897484624334e-07 9.566282766762793e-07 0.0002876841970500163 0.00012373342369561614 -2.666048234055897e-05
378 1.598006033358141e-07 1.0079168607442128e-06 -8.73858041931491e-07 0.0009806346210053626 -0.00018786900929377242 0.00025115140523948235
457 7.840447034971489e-07 3.1587330548294156e-07 7.574215895781632e-07 0.0005167419267138285 0.000552966455039163 0.000497906159475332
656 7.38304308774514e-07 -2.3959056397362723e-07 -2.8543657663620286e-07 0.0004364954434950576 -0.00021044516003837176 0.00039677700173311193
1324 1.000490276278774e-06 8.896655343821022e-07 -3.5397609971654983e-07 -7.489202732204815e-05 0.000349035093326225 -0.00017268765986270444
127 3.461719201106681e-07 1.3881656063705776e-06 4.4507287688057694e-07 0.0006913061402136508 -0.0004399019675304213 0.0009101532824905804
1285 -2.718150488424412e-07 2.451739866058103e-07 -1.0734838673464667e-07 0.00017178714027034312 -0.00031467224562106434 0.0004920146143403413
122 -3.489049257495629e-08 -1.3787926973502273e-06 1.7030086494110236e-07 -0.0002674590357261472 0.00027771183658035256 0.0006713751237743836
550 5.467368721414924e-07 -2.4375935439679867e-07 2.4162576049044404e-07 6.79151723060037e-05 -4.584141307556143e-05 8.056336420831704e-05
1429 5.716239033708068e-07 -9.330611369447319e-07 4.38549270359394e-07 0.00023439070928230898 -0.00011263381523084773 0.00025032037669575966
506 4.953061737640797e-07 -5.058064406967453e-07 7.276005903440541e-07 0.0004941930197781786 0.00019514686041887942 0.0003760115046183352
10 3.0006980498290713e-07 2.3768123956345814e-07 -4.0618947579581955e-07 -0.00011470391519387217 0.00031407802431244607 -1.0895748326819768e-05
609 3.1967769509293425e-07 6.639792638810427e-07 5.435425163001871e-07 -0.00043459050672947695 -0.00031415667208422644 0.0001929574485639049
1321 -1.2655484243700613e-07 1.0285630680694864e-06 5.106415412224905e-07 -0.000248222079311847 0.0001052760078911951 6.287066168272551e-05
55 -6.45558684224009e-07 1.9305659561188535e-06 2.0772471853240515e-07 0.00016150035702007666 -0.00012587306406481254 -0.00020760873960274528
280 3.6552628544522687e-07 5.384925832635339e-07 5.322379835672233e-07 0.00013244140189415819 0.00038472256999336413 -0.00021331558721069668
448 2.4159848557993826e-07 7.952310215717489e-07 -1.3059331114627678e-08 -7.633972851151008e-05 -7.032703240521907e-05 0.0002701335831611859
153 -5.992769648853668e-07 9.92715695955429e-07 3.2804467559995035e-07 -0.0003004446081300899 -7.830364645859423e-05 -0.00056809133549013
536 -1.494405557027817e-07 2.652487246440415e-06 -1.0372675840343185e-07 -0.0005125197388194646 0.0006961524391156504 -0.00027785457093751673
778 -7.64000244480132e-08 -4.028524209606942e-07 6.01657356931169e-07 0.0001297678878819406 0.0002482941258592126 -4.121611870448815e-05
1263 -3.0270758395904216e-07 -1.0406626791434413e-06 2.77664142964428e-07 0.0003449744450864198 -0.0003702390660865254 -0.0005432952188280719
1186 -7.25030894019012e-08 -1.3131646690483142e-06 1.3335567366691713e-07 0.00014696439788610565 -0.00019758024207619512 -4.3700433268507245e-05
2110 2.799037502078267e-07 -9.283093233198025e-07 1.0289147952164508e-06 0.00017474149638229756 -0.00017673738256388695 -2.6324306270860077e-05
24 2.908301338171721e-07 -7.021027710445444e-07 1.4285282129516475e-06 -0.00011961195423256191 -0.00032113917438451834 -0.0003113090604379435
730 -6.152344397721547e-08 -9.011062951487595e-08 5.573844086717478e-07 -0.0002318905645066077 0.0001072586588314545 -6.857746280721393e-05
1666 3.190048132642843e-07 -2.6397728487064204e-07 2.7195902914239834e-07 0.00022770917770127387 0.00020027340349346024 0.0002556797296337279
303 3.397900885706274e-07 3.631968224708196e-07 2.7892611947998755e-07 -0.0001720896790051626 0.00010019626355032004 -0.00024232569272561338
852 2.851740481950421e-07 8.23573747152496e-07 1.2600589597998574e-07 0.0001092356722845054 6.921682452536503e-05 -0.00014849502967820635
1744 2.909676691469763e-08 7.851052929984507e-07 6.583606423523736e-08 8.015903218461407e-05 7.748330693345752e-05 3.5698010942389365e-05
63 -6.380065893733446e-08 1.17576972395834e-06 -8.182865535297997e-07 -0.0002409282339503019 0.00011468428726332393 -2.9416042820788762e-05
396 -2.0581813098024793e-07 4.725157553739044e-06 -1.6896068246000812e-07 -0.0011893632236189807 0.0005552703998166772 0.0004919148509816066
736 -5.698674851192317e-07 2.4296271408131544e-06 2.8927947170381767e-07 -0.0003028106385019633 -8.067401243771243e-05 -3.8052449256435314e-06
334 2.845647151422239e-07 -7.558815736159862e-07 8.813456870085036e-07 0.00022874775257673434 5.060592110734453e-05 0.00012153967084429223
1462 4.257412121628844e-07 -7.061113114942042e-07 3.1362761278582677e-07 -0.00021738122355583023 0.0001272524035525364 0.00019456045098910452
39 2.9982791722724625e-07 -6.524338472712524e-07 4.040419224189629e-07 -0.0001983267203173018 0.00017201364063749495 0.00023111116419550617
222 -3.5361188187054896e-07 3.5198084387587245e-07 -2.937011458663739e-07 -0.0001337241954615961 -1.635155161631521e-05 0.00011625201003806052
1466 -2.3374475405277583e-07 8.226311851620639e-07 -7.258506533636526e-07 -0.0005196408816656985 0.000497125555964111 0.0001892312033731742
271 6.708184549851567e-07 1.8674065978266555e-06 -5.987118075618734e-07 0.0002052673849704284 1.6869583908545858e-05 -3.2045099102104895e-06
503 -2.9554907657034196e-07 1.988701717068939e-06 -7.511464842595117e-07 -0.0002383774836081223 -0.0003393467443623095 0.00012616808619947758
1053 -1.6379206138211594e-07 3.0466900934897175e-06 -1.4709416469733584e-06 0.0003223036540252198 -0.00046832362981800394 -0.0004269866331715938
508 -1.644935895275634e-06 1.9795516874576102e-06 1.637114064260422e-07 0.0007359584813857057 -0.00026869415383648987 0.0002735402316370234
1261 -2.642813600102918e-07 3.77175355496249e-07 1.3033691009786754e-06 0.001333790831254823 0.0003442265143620547 -0.0008299863319894212
608 -1.188679382814396e-06 1.977117694866075e-06 -8.94487924630369e-07 -0.0007595666618193195 -0.0007959649327198308 -0.00019422647052624365
753 1.6097116496890898e-07 -1.0466851076041276e-06 4.5360147280239646e-07 0.0002641781327130154 0.0002668597449857136 0.0004145814512390127
183 -8.503102820058043e-08 -7.735036238299993e-07 5.222193873436344e-07 -0.00032444495378436454 4.461997055871855e-05 -6.49761395711135e-05
266 -1.4967047360034046e-07 -7.037145212700242e-07 -2.573023230960752e-08 0.0003794686837362672 0.00011964798361443299 0.00012128977687280544
53 -1.8548266491176243e-07 -4.017760669305269e-07 -2.3306793618644258e-07 7.21260867326054e-05 -4.424648201476211e-05 0.0001558744390580468
375 -5.0140938137793195e-08 7.459786676161768e-08 -3.7388149409016663e-07 -5.1053360886071454e-05 0.00013255392150460615 0.00022719812291536787
692 -3.3341017642165265e-07 -2.8901624834451347e-07 -2.7103540727689495e-07 -0.000285877527758974 -0.0001293835353421469 0.00029666214966024584
773 -1.841662009256952e-07 6.227248750239007e-07 -1.4825544243785296e-06 -0.0004739376187321387 0.00014776002381866805 -0.0001941342209859936
1316 -1.1116875593784377e-07 7.704851858306499e-07 -1.3653622754326976e-07 -0.00044195575613679473 -1.629788877824033e-05 -0.00013806546562442068
193 -9.695567856260302e-08 4.6018685874140183e-07 1.8338531680886787e-07 -5.442128450576691e-05 7.019606179536049e-05 -0.00015259282713293908
1256 -1.7575190093752393e-06 3.50457829944419e-06 -1.9409131866603915e-06 0.0005702776166346286 0.002048267666767007 0.0005246401215140872
1174 -3.7448632630929924e-07 2.9943172129673316e-06 -1.3840074907395594e-06 -8.727589887771585e-05 0.0004964107325214951 0.0006078057567714773
891 -8.495854761836755e-07 3.691429675164791e-06 -1.2911989224011035e-06 7.094351303663467e-05 0.0006516764290397942 0.0006480209640671783
456 -1.470554760096197e-06 3.5586009602460324e-06 -1.7300243262285523e-06 -0.0001759240705894841 0.0005856162546874774 0.0005702905669098395
170 -1.00696469049287e-06 2.5392020967182523e-06 -1.0179913914077897e-06 -0.00016373485385387667 0.001199909746942437 0.0005628927294146713
1990 -2.0512814140676685e-06 -4.291157809298059e-08 3.010564197006986e-07 -0.0007801425191143116 -0.0008390230769338548 -0.0007724565230561612
1747 3.3385303684998564e-07 -6.488359262088562e-07 4.603563075048046e-07 7.803452810106485e-05 -0.0003067544765318016 8.071219073385769e-05
1817 6.044482222671261e-07 -3.8660267414093055e-07 -8.591593249964876e-07 1.883817484811571e-05 0.0009240191019646282 0.0008054854919988603
108 -1.097142906351572e-06 -1.7526823074927237e-07 -2.395358665739117e-06 -0.00025701195415753014 0.00024323335087703712 0.0008725365037822987
996 -7.772927605965431e-07 7.688953809070978e-07 -2.1058438890487816e-06 0.00021909907288071492 0.0004422507666170684 0.00014440166134079932
1428 4.5250463113801393e-07 6.534350564440938e-07 -1.9180062700335106e-07 8.121001467813768e-06 -0.0003196251812555076 -0.0005998578573669631
978 3.0329534484235094e-07 4.1619384171393245e-07 4.6513109803442825e-09 -0.0001173867986505552 0.0003498124164254074 0.0009510866659179941
146 -1.4265063855056902e-07 5.827389119543905e-07 2.2282188799504372e-07 9.406607620548226e-06 0.0002124407715248994 0.0002972790025837984
131 -1.0461075346585502e-06 1.451094437805428e-06 -2.1752643937037142e-07 -5.377321719983075e-05 -0.00018187452059487445 -0.00015885170882342045
431 -5.774222893898317e-07 3.840189348806992e-06 5.756970924018692e-07 -0.0009218952585416966 0.00048654370460225873 -0.0005738892808324502
614 -7.209593341363584e-07 2.620363957033642e-06 -4.275441941243067e-07 0.0008581183672658046 -0.00047201954328612763 -0.00046857210137773406
394 -9.449785293005696e-07 3.0916416720655897e-06 -4.801002458021144e-07 0.00021622575761350607 -4.62490267236192e-05 -0.0003702166184208132
544 -9.276171096386558e-07 4.102746911099951e-06 1.6913674589824836e-07 0.0005433843535752757 1.3901677134656883e-05 -0.0009624363646795822
737 -8.437146204905072e-07 3.0757564392984532e-06 -7.456246522741267e-07 0.002118381698434589 0.0008245935449867712 -0.0005865958806331171
34 -5.063931297468927e-07 2.265308241329431e-06 -7.567653322511706e-07 -0.0006638715142168882 -7.360612723939603e-07 0.0004431922261418432
111 -8.741406228090179e-07 2.336774983016983e-06 -1.2390821684687299e-06 -0.0008400380599357197 0.00012980062045610897 -0.00029304489203484807
2037 2.0988853735604002e-07 -1.792422931306415e-07 9.21450966088497e-09 0.0006790173876487739 -3.110494455302123e-05 -0.00012452368638609588
1485 1.6662740955276619e-07 -1.1859164498914473e-07 1.596700949543913e-08 -7.978634887961694e-06 -0.00017843736975708602 -0.00044593391467804205
2062 5.445014030532585e-07 -7.292568812335295e-07 6.819037069792604e-08 -6.93122684804536e-05 0.00010297706546486552 0.0001098295279731946
1240 3.6334377232740385e-07 -8.311598052610456e-07 6.542547269291666e-07 -0.00020464150382997083 -1.1003702024484297e-05 -0.00029885326775915693
988 4.0601224573207873e-07 -1.1018633694688412e-06 -4.793270422084142e-08 -0.0001352814079372952 7.557386761413168e-05 0.00013071178100227456
1237 1.6479492335365214e-07 -5.510299930620266e-07 4.1649426736319027e-07 -0.0005147648297869507 -0.00040766317062931065 0.00020201998021099509
1038 5.426061126568812e-07 6.106045072961161e-07 -2.3583425988987143e-07 3.722957242106894e-05 -0.00019843059133260507 -0.00011749581836221812
1307 -7.173183754560048e-07 1.517360885105888e-06 2.9786923532768723e-07 -0.00013876020118155493 -0.00028134515750474564 0.0012280538938058464
1756 -1.2493990105141239e-06 1.2735563844269255e-06 5.852897971759078e-07 0.0002235443994554341 -0.00022040856896768368 0.00014337883942721355
1185 -1.1645589755706554e-06 1.3668486933521962e-06 3.7440411299010566e-07 -3.932101231786971e-06 0.00031572452903221737 -5.904189007827749e-05
162 -5.460573953526565e-07 2.9788425334302082e-06 -3.2903282101743976e-07 -0.0008971290133744017 0.00041615209636949673 0.000289289517020161
992 -1.3937150449650893e-06 3.5574931429218507e-06 -6.574814341659501e-07 -0.00019271312423815225 0.0001764291390063632 0.0007743585434229063
1087 -1.0185983352618046e-06 4.032198283339254e-06 1.7775045853861642e-06 -0.00021304048057157755 0.000258008683834351 0.0010415099186305466
1403 -1.95702936984464e-06 1.2042259887422053e-06 1.8609132182452455e-07 0.0024349993145475054 0.00022384126209010183 0.00045475403356185255
1827 4.351855071358289e-07 4.0447853538280606e-08 -1.1205144693126417e-07 -5.30547240777878e-05 0.00019840717961287476 0.0001670160596534321
910 5.795017512798582e-07 -9.290219569457186e-07 -2.949347171724314e-07 -2.4068959109332144e-05 5.8061611296846894e-05 -0.00010959335821251199
1300 -1.8572174186967407e-07 -1.4374882832290211e-06 -6.535651073339704e-08 0.00014697256440281557 0.0005046919669432185 0.001128765777143554
1376 -3.200929208478462e-07 -5.506071087901269e-07 -9.804822755262572e-08 0.00011615410273833619 -1.7434772441726934e-05 0.00023056153088549426
1384 -2.2246741968766422e-07 -2.651069981904582e-07 -5.935240266880086e-08 3.048703210228277e-05 1.1574442401645656e-05 0.000361485977573408
924 -2.405072059975877e-07 5.961227540745221e-07 -4.6183227422387726e-07 0.0009115078062056193 -0.00015798630240133568 -0.00021768133143092728
350 -2.9927780247714196e-07 6.755381750783564e-07 -4.0909770200212955e-07 -0.00019559116783056672 -3.864346556740584e-05 0.00046467032330144983
1474 -1.415226067881436e-07 2.1790695394061554e-06 -9.91042099341255e-08 -0.00016634015221008905 -0.00021561265073876713 0.0001957817026871165
547 -4.678226008173317e-07 1.7280413446755694e-06 4.374295318707777e-07 -0.00016327046987956977 -9.207601912015085e-05 -0.0003425754453641837
615 -1.964219648078872e-06 1.934879210584821e-06 -7.866897713150181e-08 -0.00016099526955386882 -0.00028827662931727566 -9.105808650119653e-05
1533 -1.6631598964710022e-06 4.317334132884462e-06 -7.572519381299895e-08 -0.0005362420224716473 -0.0006617749757327484 -0.0007768381852429144
103 -1.3617618007436856e-06 4.085060860476917e-06 3.052912028080209e-07 -0.0009962146121173655 0.00011012148200732568 0.0010722366896917092
1706 -1.1848165594446196e-06 1.5743492022518422e-06 -4.0302218041388654e-07 -0.00036953927735401795 -0.00039878169021754324 -0.00011251612944865806
769 -1.328180523037084e-07 3.859089141634136e-07 -2.5720434659731455e-07 -5.7940240054723445e-05 -9.603935179133144e-06 1.1882014346526078e-06
1203 3.730011673130013e-08 -3.6658156990405316e-07 6.279373544634045e-07 -0.0004774606393247863 0.0006253475944725652 0.0003678125241167683
1486 3.6388698979926717e-07 2.0625178227404831e-07 -3.84535089205589e-07 -0.00017249300817078817 0.0003898729841083348 2.161902477810619e-05
323 1.4969147977892018e-06 -6.580620428978244e-07 2.1007580477993048e-07 -1.4654822757591575e-06 -0.00014725596824584675 -0.0001663342580067547
42 -1.0169669218783576e-06 -1.4184289147462012e-06 1.1307938035191373e-06 -0.0003617363567853721 -0.0002746498893837061 -0.0010344821007776226
982 -1.31304910979883e-06 -5.58403834175084e-07 2.2567842221500363e-07 -0.00014844557880153787 0.00045789647238922307 0.00049240196286885
1650 -3.6670208997473447e-07 -1.959347131134701e-07 -2.5051374634055846e-07 0.0002391069472898437 0.0004835743824923925 -0.00046081093914031426
1876 -5.250854609146689e-07 8.497108220778161e-07 -8.449325552632958e-07 -0.00014132902433200184 -0.00012610888483365542 0.0006852457181670859
803 -1.1198314742972665e-06 1.8778366001631083e-06 -2.8165144087259425e-07 0.00035556837813056045 0.00014283437031566032 0.00032884769525329304
1630 -1.0635216715229306e-06 1.8340095451662414e-06 1.0757516076134804e-07 0.00010541900390102276 -0.00014734965273916883 0.00016688981736034538
1227 -1.4874603904127073e-06 1.2278043824572613e-06 -5.310670413910852e-08 -0.00023440873969346397 0.0004247046290138296 0.00022907054909486265
642 -1.7441858741089009e-06 1.2161436938061965e-06 -6.281894576110645e-09 0.0002537822124661694 -0.00033542440535070013 -0.0006745738511890592
1659 -1.9520002904677465e-06 2.168595109092367e-06 -4.3514607033547207e-07 -0.0002691307503994359 -0.0004395856405588027 -2.844909704663884e-05
729 -1.5568174837643065e-06 1.908816375792152e-06 -2.0818573324175143e-07 0.0005649449764259263 0.0006286387140810068 0.000563565957488616
2192 -1.6624032448905218e-06 2.9405620402550456e-06 -6.889317780237562e-07 -0.0003128031010164325 -0.00045092397694334013 5.90819437523037e-05
1277 -1.3481110151126263e-06 3.8282461604456475e-06 1.0944064540964967e-06 0.0006625924001013937 2.150087994574015e-05 -0.0008953446010768019
548 -1.1912844399222799e-06 2.185801267861664e-06 3.5166252958747005e-07 -0.000265896644552675 -0.0001863320420655465 0.00030055358112124185
1711 -7.769978562589009e-07 1.1396419377105773e-06 6.541421451475828e-07 -0.00024351146277036317 -0.00022979952719314983 0.00015027484153600903
2193 -5.0326450053744865e-09 4.087799686366284e-08 1.3952146694735362e-07 0.000343859992231897 -0.00012357613587598152 9.169135792817646e-05
1857 1.5644159632724838e-07 -8.116014400104528e-07 -6.53146108168126e-08 -0.00014268297722562842 -0.0001382363764908173 -0.0004029297941886318
1320 1.133363535439473e-06 4.24802926095048e-07 2.0288660018605334e-07 -0.0008259895485331443 -0.0002556606173861314 0.0004140811671233877
1899 -2.819764173435431e-06 2.2425914293058037e-07 8.006972641714658e-07 0.000554460607705639 0.001049935478220914 0.0009836964194631234
2169 -1.4966236671276798e-06 6.740490008762597e-07 -3.364638973905477e-07 -0.00015318782844438183 0.00021290402372782153 0.0006506649967594208
1873 -1.2188315369482506e-06 1.3482924867058342e-06 -3.6004969516172893e-07 9.841443871113367e-05 -0.000277144924171834 -0.0002840414567073412
291 -1.3891129938604504e-06 1.2517962066678876e-06 -2.1717160332516125e-07 -0.0001416767629234977 -0.00010749746256879661 3.2867149347940355e-05
1757 -1.3152745115156543e-06 1.7737773750843357e-06 8.504689524531564e-08 -0.00012456273302408012 5.412953528546582e-05 0.00017920188926917382
1224 -2.1909768021599132e-06 2.492834272128658e-06 -1.6344344172716913e-07 0.0005561816991096429 0.0004099215335363417 0.00026321242634313064
206 -2.3180337824201944e-06 3.5225497851528605e-06 -7.294668969210376e-08 0.0001921967904262327 -0.00012132900905148226 0.0002748172304094362
1470 -1.3235198059678026e-06 3.827325601386707e-06 9.407657351982541e-07 8.609392275761293e-05 -0.0002935074448595102 -0.0002177457636784521
1329 -6.064994923096368e-07 1.4506744691724368e-06 2.4760607398430266e-07 -0.00012659764151163797 -0.00016066254302248345 -0.0003420322681836896
1346 3.082809875690808e-07 4.740452806574414e-07 4.315134500508296e-07 -4.557818074214183e-06 -0.00010915051193153613 9.634132137785134e-05
1125 1.5294863781771037e-07 -1.5820692549971993e-07 4.136038290831795e-07 -0.0001498845709115679 0.00029031194915997297 -0.00022005322295039705
1268 -1.481647846498698e-06 -5.127082737969268e-07 6.375137263736664e-07 0.0009523743319467459 -0.0006342786208209876 -0.0004799871299885922
1453 -3.162905029822578e-06 1.5079115505691243e-07 1.3333115964916536e-06 -0.0008256082423678674 -0.0003776049033064776 -0.0009263872262295654
1738 -1.5706108471361918e-06 2.39006633804616e-07 -7.764854870148698e-07 -0.0002895158065116648 -0.00025660812363361275 0.000141330097355078
464 -1.9654357466068865e-06 5.796486356620641e-07 3.5724216288241393e-07 -0.00015694955345853977 2.6198503022506273e-05 0.0001127215633925567
1919 -1.9696166009341323e-06 6.292376830732263e-07 4.781724200127653e-07 -0.0002775928037120735 -7.332714979247241e-05 0.00021249188185541113
1195 -1.5469528685920882e-06 1.3249197210997624e-06 -5.809083260034251e-07 0.0009332790774329845 -0.00013932578648400806 0.00015805129276366076
967 -2.580475328367393e-06 1.5540300653833984e-06 -1.0242031093081856e-07 0.00042382908335765126 -2.8584557238654536e-06 0.00013451292629057407
173 -2.4660017928820077e-06 1.727840015034451e-06 1.1989502622915128e-07 -1.3083521859293448e-05 -0.0007123379573809035 0.00016828633210171673
1191 -1.95560605150292e-06 1.6234987113167534e-06 -6.457658651876874e-07 -0.00013683700930611505 -0.0005628565537663556 0.00011926520273749151
850 -2.681096302278126e-06 2.549483755500695e-06 2.1213438509085099e-07 0.00017618018092701391 0.00015546179651496796 0.00040564804425588085
960 -2.619670285199633e-06 3.6637284129007085e-06 -1.0976126546519057e-09 -0.00016669359695624402 -5.481743119944525e-06 6.507098173776767e-05
155 -1.7205957788685878e-06 4.418123419733753e-06 6.544131944980915e-07 -0.0008699045576579478 0.0006202247729479456 0.001339773413941601
58 -9.048706473012214e-07 3.831093202966038e-06 4.837487233840274e-07 -0.0002739321136358049 0.0006226634583979736 0.000637114794421161
241 -6.161839631666507e-07 1.7974125946713514e-06 2.0650334356766042e-07 -0.00021807725420816234 0.0003136891972098929 0.00019193460773281746
1736 -1.7029499342770593e-07 5.304201678819606e-07 2.8983133520157173e-07 -3.097597031845816e-05 0.00013581578600434883 -1.3804444280918467e-05
881 -7.630948129354486e-08 -3.516285081479293e-07 1.4947265785926657e-07 0.00016739032869151607 4.7896243935373234e-05 -0.0001732606182388755
1198 1.4298509243366228e-07 -5.772688192075611e-07 -2.261733438480871e-07 -7.477898886021635e-05 -2.5126272037908713e-05 0.00033488468889390056
2008 -1.1272375742016312e-06 -8.607943237554692e-07 2.2806859353194464e-07 -0.0005191878792841027 0.000539157477895682 0.00012158373054580876
270 -2.6492201843604523e-06 -3.014982084548352e-07 -1.3679981700145063e-06 -0.00013358834468911739 0.0009010360847693591 0.00031102228523455445
1177 -9.2612332318526e-07 -9.32522306757394e-07 -3.59530892882788e-06 0.00031119964310194785 6.430741358883102e-05 -0.0005469365155729401
1743 -9.312675724589775e-07 -3.518788687293406e-07 -1.1151778196733125e-06 6.3182526381514195e-06 -0.0008318804942173035 0.00039222752628998266
1632 -1.1521581126727225e-06 5.28344353723524e-07 1.1025661800396478e-08 -0.00021517418650727268 -7.498862119646695e-05 -0.00030563522480973713
901 -2.641087122582888e-06 1.751211955662529e-06 -6.715838458475475e-07 -0.0002778574376377315 0.00032611233231587505 -0.00013507486952931552
393 -3.136652832805741e-06 2.1710737753860883e-06 -1.1641261628265024e-06 0.00040573791773071904 -0.0002984239610872162 -0.000317526476558686
917 -2.2407607616672096e-06 2.1966781882080797e-06 2.656035594696611e-07 -0.00033631720985276834 -0.00026889836471283665 -0.0008583884589424988
704 -2.9848410771520234e-06 3.4102661534382037e-06 -6.448434482953867e-08 2.6063456986215638e-05 -0.0002118729686825493 0.00012756908993475822
1250 -1.8452850475507643e-06 3.189029861628903e-06 -1.7810323187000605e-07 -0.0002982754087080992 -0.00021028203244829788 -0.000489692235365591
205 -4.881738230549894e-07 2.6246244162072913e-06 -3.6721629722398456e-07 -6.165847455593713e-05 -7.847376194898591e-05 -0.00021967654391290728
1145 -2.3881310810361484e-07 1.1937641112522952e-06 5.793472033339917e-07 8.058835306102099e-05 -0.0002571972638862333 -0.0003479244783347967
2041 -1.4842171333431006e-07 6.55373487201156e-07 6.56455075115612e-08 1.262856346690486e-05 1.0267468512990348e-05 4.954574427966147e-05
1102 -1.2941776583592403e-07 -2.426971138913519e-07 1.9622665486252885e-07 -0.0001821303182878588 3.4783553721332894e-05 0.00010159849516978122
2143 -4.990752619756219e-07 -6.574441346418059e-07 -2.456207514885371e-07 -0.00013976991576533673 -0.00016033883419855008 -0.0001995033137219417
1408 -2.501851233249218e-06 -1.3734034580165414e-06 4.900262610653786e-07 0.0006948068631151374 -0.0016992892594550522 -9.308094433067894e-05
1842 -9.316827495602385e-07 -1.7076313297514687e-07 2.1562689081234486e-06 0.0014616680115083105 -0.0001548980417003814 -0.0008215158953051361
1969 -7.85465553173457e-07 4.5481928337638444e-08 1.781867977403397e-08 -0.00021922409478219727 0.00022843555593631028 -3.035925839984012e-05
1468 -1.0820221540768717e-06 5.922671934085301e-07 -5.454904787363387e-07 0.0002581662871066932 -4.259339005125881e-05 0.0002951923199578603
1100 -1.0823053944396547e-06 1.3742456486261042e-06 1.2005084109071416e-06 -0.00014744313366606862 -0.0004912641175037759 0.0006286131789533611
1640 -3.306987443744684e-06 1.9083629432896884e-06 -1.0956342348147038e-06 0.0003606862783392435 -0.0007762143506484619 -0.0006494943926273245
882 -3.052986480503419e-06 1.991259585442752e-06 2.1994097958714103e-07 0.00048448970171940475 5.685949651446228e-05 0.0002887744143761928
1442 -2.967547490596646e-06 2.2631244039066773e-06 -1.1119032471938815e-06 -0.0004592597346597718 0.00030070101591631835 2.8324608380643783e-06
249 -2.217361864740946e-06 1.835307014077107e-06 -2.2886806983383442e-07 -0.0001661806644993829 -6.155239386664292e-05 7.62553430145935e-05
1002 -2.487725712328757e-06 2.10837055163919e-06 7.976436814823873e-08 0.000283701545196177 0.0005806000283507658 0.0008935755407467026
860 -1.767985203541931e-06 3.4888083995242495e-06 -8.722613576361389e-07 -0.00017916310844254922 0.00013826846579834956 0.0001626029167564425
328 -4.166611455768409e-07 1.1916323151749222e-06 2.3972294790373855e-07 5.621643007111269e-05 -0.00048474190167522327 0.0003255141191137891
1909 2.8657366782030402e-08 3.772859468571656e-07 5.495242662461832e-07 0.0002613801635032633 0.00029850870453558895 -4.89372600731391e-05
1424 -2.1236020600230322e-07 -5.037752453902975e-07 -6.189806685680402e-07 6.805645648986449e-05 0.0001805843299774211 -3.664859911773589e-05
1426 7.733121872558313e-08 -1.4692244073871398e-06 2.2108683352458753e-06 -0.001970291110723851 -0.00010365909505305915 9.40625730295308e-05
1956 -6.965953058629533e-07 -5.983131556479248e-08 5.105491808780011e-07 0.0001168781689522367 -3.1339879528735234e-06 -9.255672189846014e-05
2093 -2.6119780886052417e-06 6.342680257959513e-07 7.958770448178596e-07 -0.00018629719697960248 -0.0007082687067224731 -0.00018366248443984202
2015 -2.344390232962453e-06 2.175271280633617e-06 -3.051161397664234e-08 -0.000393228503127862 -8.591666628477515e-05 -0.00032216970339782786
1496 -2.3829272312191777e-06 1.7976209747248809e-06 -4.322156735906504e-07 -0.00028384462545640965 -2.306848439658191e-05 0.00014562961292616407
1740 -2.0431629591030667e-06 2.2073181303572128e-06 6.10629011433495e-07 -0.00017054267364367446 0.00031224024093154694 0.000283940749918329
1541 -2.5784737125476186e-06 6.518423464422728e-07 6.94157315993974e-07 0.001169675980661999 0.0008431781162289885 0.0004603706394664911
529 -1.8881552446756204e-06 1.9838453056245092e-06 -9.230320048791442e-07 0.00036593230780131814 -8.43278239245521e-05 -0.0003324624580101483
387 -1.921774990262033e-06 1.7156599182803624e-06 -6.019847178502127e-07 0.00025295083386809284 -0.0004938078091695882 -0.00030756941418256546
1449 -8.224391352114005e-07 7.5096284847865e-07 3.8707387337439916e-07 0.0006354909640450909 0.0005737044153147217 -0.00017527212845690698
1723 -8.466875122435554e-09 -3.6850280253346145e-07 -2.9607723334395367e-07 0.00027946859550547637 2.0538963273175373e-05 -8.232855605403188e-05
73 -3.0910773751964115e-07 -8.358890522368095e-07 -2.2105756296589845e-07 -8.162170791361736e-05 -0.0002253413420347813 -3.551727110854092e-05
481 -9.223513503247286e-07 -6.634459266103751e-07 -2.3097584683562483e-07 -0.00017913905749157824 0.0002521898893323209 0.0007866236220520554
1811 -3.555231392213577e-07 -4.0937438821194854e-08 -2.5547869095293506e-07 0.00034347666079326315 -0.00040875669683182827 -0.00017812080418998328
1249 -1.8412337186838963e-06 8.037113360764828e-07 -8.108171451882244e-08 0.00038828276170106257 0.001138716891612171 0.0005641773542292564
940 -2.235445088139755e-06 9.952760346998319e-07 1.1380399593129962e-07 6.639687982832006e-05 -0.00032541798018354955 -0.00023771173506396506
398 -2.7260218303670948e-06 1.3156559141747627e-06 1.5079922776896505e-07 0.0002524845033490647 -0.00020874598915261746 -0.0001900068362260469
839 -2.8446685096191528e-06 2.2613977939751967e-06 -1.197019060834461e-08 -2.5257384389226624e-05 0.00016128562770372385 0.00046015667953076486
1155 -2.3351567291615175e-06 2.261118812028146e-06 -1.775799817495059e-07 0.00011976475567800296 -1.2695474238771484e-05 0.0003651359214813165
1193 -2.2719927774922777e-06 1.5802890729388895e-06 5.437012794525456e-07 -2.143868374037443e-05 -0.0006429500617802253 -0.0007719690678206022
2119 -2.677797673971939e-06 2.404155620256598e-06 -9.962827708820502e-07 8.371279696002268e-05 0.0003908709728181624 -6.318779623975608e-05
1343 -9.201884103173463e-07 1.565628440629892e-06 2.6708724649588375e-07 -0.00010637835665331985 -2.0990879738038815e-06 0.00024323875750134773
1418 -6.059646916213709e-07 6.619142484525674e-07 5.576827700346713e-07 -0.00036701960797858464 -0.0005570764468178265 -4.191182578587013e-05
1475 -4.3198979269186777e-07 5.040567056926474e-07 4.780484060063224e-07 0.00020800592192736817 -0.0003236274504965807 -0.00025832390651086916
1455 -1.8516300340920123e-07 -1.1781851292050918e-08 3.9555134253367207e-07 4.109597496594464e-05 0.000125616669117503 6.353156640865018e-05
1049 1.3605783305596497e-08 -2.9344367790916304e-07 -4.6068869822268927e-07 -0.0003551910030743883 0.00017777847471216226 4.184012334335926e-06
1284 1.263718818569231e-08 -5.712266357222289e-07 -2.0890286212216587e-07 -8.458484512683363e-05 4.994965235956216e-05 -0.0001525047175401582
1325 -1.4603185055255337e-06 -2.1922768000186145e-07 -4.31476086149114e-07 -0.0010992054310512106 -0.0008702921588275857 -0.0003632503016838801
530 -1.5256811083964393e-06 -3.2638603514608165e-07 6.004914895205748e-07 -6.410746010224829e-06 -0.00026881825932784255 -0.00017340443165208048
578 -2.25139002218265e-06 1.1945887189391517e-06 -1.5089703343799308e-07 9.88613815314565e-05 -0.00047571451335637663 -0.0001423842377102045
1479 -2.092639061415035e-06 1.4279865608590385e-06 9.97659625743574e-08 -5.224610791128045e-05 0.00018723202066038935 0.00024362116578162553
1730 -2.0727350761505777e-06 1.40922663609747e-06 2.1120598626340368e-07 9.873161537992657e-05 -0.0004182261454179227 -0.0003482390491615374
1751 -2.8371314680380205e-06 2.375315323586704e-06 -7.706901595192887e-07 -0.00020395894090758426 -0.00022277120565813654 -0.0005244879915705378
915 -2.3742795531347385e-06 2.585086123860242e-06 1.526860095676333e-07 -0.00016359278693315837 7.606161433205741e-05 -0.0005245338434195878
907 -1.7232242807893507e-06 1.1255800550603768e-06 -2.9397360814436685e-08 -0.0004048770203626415 0.0002562731076521576 0.0005366307341584372
261 -1.9538673425701188e-06 1.847541686062118e-06 -1.8903015571564186e-07 0.0002664202170991835 -8.561013127504166e-06 2.4959161392070426e-05
1771 -2.1222276203682374e-06 1.948939923687985e-06 -4.3112101587796795e-07 8.976047485242909e-05 -0.00033488403607891235 -0.00029589632615192554
1369 -4.0632339113287524e-07 2.6036933306357142e-06 9.312341663062266e-07 -0.0005094993195864658 0.0008528829762121122 0.0003274792191699505
433 3.880390186634998e-07 1.2910692617283418e-06 9.879523804325265e-07 -3.6563180948660205e-05 0.000777400066420489 0.0001837162391740557
1423 -6.426165556120094e-07 6.970915407527013e-07 1.5262200601880701e-07 0.00011707600722868319 3.359223169168079e-05 0.00028067387229370363
1905 -5.31267639504878e-07 -2.1418117086157514e-07 2.785874935437343e-07 -0.00015684318478713602 -0.00016478846636049682 6.233932075735731e-05
1441 -2.9698056693627633e-09 -2.1761972018222284e-07 -3.8340710413033645e-07 -0.00024167411053192835 -0.00046818375779880765 9.688655944103235e-05
2133 2.249870536311636e-07 -6.544757861780936e-07 -3.434628601087607e-07 -5.097755922965231e-05 -9.765660029297039e-05 8.238692046101258e-05
1052 2.0483453760327564e-07 -8.466332197521181e-07 7.063124441849175e-07 0.00011800138537002102 -0.0004194757235862185 -0.00013051362728863763
821 -1.612375856263756e-06 -1.581295282714978e-07 5.636130864945217e-07 -2.3343086131370262e-05 -0.0002457528928018454 4.4064076728309365e-05
408 -2.1834278594502426e-06 1.0882598100356924e-06 4.78431215731724e-07 -0.000107157839489385 9.543216676881675e-05 3.186767994014774e-05
1812 -2.1592927992853913e-06 1.6170580852316665e-06 -3.5043006064348994e-08 -0.0002744584638489786 0.00012919128294188798 0.0005368020921435407
871 -2.378796277246626e-06 2.670708482679395e-06 5.009825220618308e-07 0.00028810581183055735 -0.00022973344140606006 0.00021651723553006716
1968 -2.5393094852661072e-06 2.371459434470268e-06 1.7173037499565938e-07 0.000315100835462768 0.0006532916773463491 3.0189357241478622e-05
2031 -2.948961954448982e-06 8.413936216468848e-07 1.271082911072698e-07 -0.00018820154314768675 -7.14986071537562e-05 -0.0003791834787892238
1806 -2.827741309200666e-06 1.148228879301257e-06 -2.9087608471933813e-07 -0.0006256162718563554 0.00037769641839800446 -0.00010758193450159336
757 -1.9747406938944876e-06 1.8588214863332553e-06 1.1162694409322593e-07 -5.141554049974731e-05 -0.0001222906872782703 1.6426251537137932e-06
1270 -1.3913177660774895e-06 1.8039272108628784e-06 5.342646841164374e-07 0.00016959613803655703 -4.2426596618610354e-05 -0.0002571103716941357
59 -1.2837409199135034e-06 5.779785873187316e-07 2.1698988132236169e-07 -0.00010980911337103792 0.00031688801377462096 -0.0002135447759066108
1093 -1.0886995710237026e-06 7.63019652543112e-07 -1.151517022650315e-07 -0.00031211635186745567 -0.0005730212625919592 6.786622805955704e-05
774 -5.333608355768197e-07 -5.1780392603028686e-08 -4.934090018438487e-07 -1.909077941007253e-05 -0.00022691135231203837 -0.00011612296209938189
1065 -2.0881611707038723e-07 -1.3768945890085774e-08 7.452894219140397e-09 -6.926370859728228e-05 -6.45730726403534e-07 0.00015419277160528752
920 -1.2193235115707583e-08 -5.3560603032740935e-08 -6.215416731828376e-08 -0.0002738189671232983 2.4337973941978062e-05 5.881650035517234e-05
1301 -1.7337412460146695e-07 -2.0600687517537187e-07 -6.825623341047691e-08 -0.00021577038860330874 -0.0001437278888900469 -5.822371954197331e-05
1519 -1.6991469103210492e-07 -4.3133641806851123e-07 1.1140037393244583e-07 0.00011070499005426699 8.534288890897999e-05 -6.0369000353287606e-06
1524 -6.280757039463755e-07 1.3258344134350188e-07 3.146496103420058e-07 0.00019864489121412506 -0.0001200237244634826 3.5208625833413994e-05
477 3.236331995635363e-07 3.296777817949625e-07 -1.2011819846518388e-06 0.00010271357702238857 0.0009933271618806662 -0.0003650387425784772
1238 -2.978877939986857e-06 1.1055159693091453e-06 8.935230646640857e-07 6.0046178041875636e-05 0.0006708440002684137 -0.0003292279492836707
714 -2.4142913964142966e-06 1.2549975941158017e-06 4.563353859175082e-07 0.0004234032621300291 0.0003744450909086309 -0.00021935054626653184
1034 -2.506394604745474e-06 8.152735957888498e-07 1.0981662541873473e-06 0.0006751410715394025 0.00021649871571216938 -0.00021214838945636384
681 -1.992541337492928e-06 1.357678136505368e-06 7.568680108256322e-07 0.0009276670144009743 -9.618008368421737e-05 0.0009223903423543068
52 -1.4909281837000073e-06 -6.216511910561684e-07 -1.850687648431282e-06 0.0009118551955814214 0.0009340531074876459 -0.000952959644995941
1211 -2.9545385439745287e-07 1.3061822549515931e-06 1.0465732679209573e-06 1.2498507719363698e-05 6.814992438942837e-05 -0.0003200413005453518
841 -1.2707367220590984e-07 8.673108227466246e-07 3.67288455027764e-08 0.00022560619290106252 2.8354470102832594e-05 0.00010973070279466114
1251 -1.4419594059321452e-07 8.618400589947611e-07 -1.423550354640772e-07 0.00032284376769625115 -2.7209500992933143e-05 -0.00030692027441864983
876 -2.3236820528334825e-07 -3.410051220590781e-07 -2.894643477832858e-07 -0.00023306065819275835 0.00036593747069316206 -9.801989357290123e-05
1510 -1.75102131401079e-08 -2.5118644815479437e-07 -7.433620679384285e-07 0.0003365538437517318 0.00010422452840899458 -0.0002836314409800738
943 4.438573951812052e-07 -8.966302372177091e-08 1.6617447806757043e-08 -0.00012556649691893777 -6.59620476035598e-05 0.00046358588758551407
715 -2.7332781078733017e-07 1.5932720511831595e-07 5.355618664366623e-07 -5.4002905237728495e-05 -7.975077069096988e-05 -0.00024029950161954643
636 -2.2567109783383e-06 -3.816908660670324e-07 1.8454149141218835e-07 -6.299477501622372e-05 0.00015717833991529757 -0.0006244933630405567
1254 -2.0205524863620697e-06 8.871131891884258e-07 7.20266020278058e-07 -0.0006441424338767316 -0.0008613658960201243 0.00026189409953658425
95 -2.3250223868995527e-06 8.47199982705983e-07 1.1995789799108692e-06 0.0001778247807869261 -0.0013239392534782493 -0.0014452139348838052
663 -2.478638329501976e-06 9.428016681493524e-07 3.889242019362768e-07 0.00012693294178393443 0.0003986347426364565 0.000774287985737725
1397 -1.6626601577295365e-06 1.663246300660277e-06 7.077522463632696e-07 -7.73690789351729e-05 -0.0007148666511753505 0.00047466330953575635
171 -9.743661084204386e-07 1.7746218723338515e-06 -3.699900348218399e-07 0.00010892252052807633 0.00025967635188093614 0.0008426156326931516
1401 -2.621576370967446e-06 1.3832899510752348e-06 2.7092632694854675e-08 0.00020061706474773635 0.00017477135109328592 6.125692221626171e-05
511 -1.482421354606125e-07 7.062938654829973e-07 5.361495994337239e-07 7.854221012811523e-05 1.4077970350057529e-05 0.00010017620907525335
507 1.6091595971172775e-08 -8.620127205131982e-09 -1.2031074777001426e-07 -0.00035705107715741245 0.0001230232548603647 -3.5139749171994e-06
401 -2.2858993631778366e-09 -3.0464806778395964e-07 -2.744629641237379e-07 0.0001347145973547922 0.00021910939564973747 -0.0005441124599992607
939 -8.707404859709911e-07 -1.1376502597161006e-07 1.4497633150906949e-06 -0.000534175924500624 0.00023351813489819808 -0.00020286070609146312
149 -8.417286386161549e-07 1.9390605584393892e-07 -3.713604331881578e-07 -9.305410868018167e-05 0.00031923466079876 0.0006125751445924053
1116 4.757924820830666e-07 1.7968510883574637e-07 7.910100668760493e-08 0.00026932092763828946 0.00026808516158103045 0.0002329775556054428
337 -2.478017942672739e-06 -2.268663001115544e-07 7.388102472176048e-07 0.00018559168160428758 -0.0005429344226490834 0.0007710065542115564
324 -2.47506542298866e-06 1.0747811561239632e-06 5.824518173810863e-07 8.610751119612865e-05 0.0006352637420949884 -0.00036722872164143166
1800 -2.28463250145156e-06 1.3621564703899754e-06 5.943841676641373e-07 0.00019509006603682182 -0.00019720783610590304 0.0007930118226180184
1231 -1.914512855966123e-06 6.9026386121836e-07 6.888397036318213e-08 9.775760780730496e-06 -8.898279092982405e-05 -0.00030382412475910307
949 -5.311998249407329e-07 7.271672025029576e-07 3.741532657089665e-07 -0.00031729083763544676 0.00011498184438123545 -0.0005619773539372919
836 -8.042901985509205e-07 6.146363273717207e-07 1.7134221327695283e-07 0.00016913866552126962 -0.00015915221299080376 -0.0001544162377003712
1342 -9.714041428892136e-07 7.990864883827378e-07 1.465304189586887e-07 6.842028988398391e-05 -5.9989487120480865e-05 4.952864849000488e-05
866 -7.185262655708528e-08 5.880004522270208e-07 1.7485543963576018e-07 0.00022437812005044575 0.000217524448380028 -7.369404287362912e-05
494 -3.818620629086159e-07 -5.130134958396081e-08 -4.307934975651633e-07 -1.2735476425662482e-05 -0.00018140469797786526 9.957715358449642e-05
474 2.1384379341150526e-07 1.9946534909462463e-07 6.699787778975282e-07 -0.000569337715860532 0.0002500388290840228 0.00024153131038459443
1075 7.080643787687516e-07 -2.00928469678913e-08 -2.9717877673924932e-08 5.3334394753090596e-05 0.0002297570758803229 0.0001091135867402513
1229 1.8970113584643293e-07 3.835937854722387e-08 4.6688958992556705e-07 0.00032942946613815076 0.000623265547577519 1.7220062665518405e-05
399 -7.873356015673288e-07 1.0202377401436407e-07 -2.1229585316533925e-07 0.0001978822045221964 0.0004893810365642192 0.000176920611811928
98 -5.748835846804376e-07 -8.568676433792244e-08 9.281275823484956e-07 0.0003191250809913604 1.511091171943868e-05 0.0001283611265175485
972 -1.0960437467680133e-06 3.4629877554921365e-07 -1.3298010880773862e-07 0.0001607858622849614 0.00034859863677579755 -0.00020180638316722748
1473 -1.2122638638788245e-06 2.0617406172364573e-08 -5.319078779778209e-07 -0.00032064306001792364 8.457472139256826e-05 -9.305510081291235e-05
2065 -8.951570484187056e-07 8.87473488831994e-09 -1.8517028576332824e-07 7.739561964204258e-05 -0.0001230929847937468 0.0004144557315103087
888 -1.0963696455964727e-06 7.965115754139857e-07 -3.9887500366427734e-07 0.00014577994273837376 0.00010778607213674841 -0.00010902667000868374
754 -5.344233615471937e-07 1.0584211344963822e-06 6.465480440172153e-07 -0.00022923493521030894 -0.0002184866550770536 9.300920327572225e-05
1416 -1.4216584208390681e-06 3.071113172471928e-07 3.676159193904364e-07 -0.0001703618593555826 -0.0004206256562447943 -0.00014743619491058035
1220 -1.3173522450147208e-06 2.7392618028389366e-07 2.8336699944075925e-07 -4.0779631448728494e-05 -0.00010704180144129733 0.00032253539417350676
2136 -5.927064111882371e-07 5.056205778944595e-07 3.6234822141081677e-07 -0.00025223942552069764 -0.00019568726706178637 -0.0001468040009736392
2023 -5.742102490787204e-08 5.250582005399882e-07 1.100058226940202e-07 -0.000343726159894235 0.00016442283922282126 -0.0002620069220876879
293 1.1269712016456684e-08 1.485644626262785e-07 -1.9349203070966421e-07 0.00030187125403686814 2.8951759879902675e-05 -8.57260983234627e-05
1152 -2.541962795794253e-07 1.5105739926339068e-07 -2.487944042498454e-07 0.00016345448396969908 -0.0002108918872271252 -0.00012158379395990415
1574 3.0161558326396097e-07 1.0824480393429293e-07 3.250742927778044e-07 -0.00015114860215877432 -0.0010377783182584602 3.687919239506614e-05
873 2.9774122356349277e-08 6.415208400771608e-08 -3.2248672607765863e-07 -4.868099881880373e-05 -0.0002392387972659373 -0.00019029725011655743
591 -2.6271632311889025e-07 2.985470354348973e-07 2.114511274840802e-07 0.00016380691160711064 -8.224312080776053e-05 2.322786795167122e-05
513 -2.767753715947104e-07 1.0725084599894704e-07 2.647675372099927e-07 -5.0612567065707876e-05 8.632452450366526e-06 -0.00027739202244370033
216 -4.961753211000952e-07 -1.3493033818094e-07 6.827628696666394e-07 -0.00020411475213189635 -0.0001934130723853171 -0.00012905054121329024
1317 -6.122397234954261e-07 -3.398055317489982e-08 3.431897285365819e-07 -6.347502217660246e-05 5.7088113207069464e-05 -0.00016000124963876927
1765 -4.6557774480210747e-07 6.299039803665523e-08 1.7280737731476095e-07 -0.00015519467355088845 1.1765768963511613e-05 8.226439740422602e-05
564 -6.656592236230985e-07 5.053765914784159e-09 4.1638314172460576e-07 -0.0001801970204242936 -7.150927430697478e-05 -0.00025310940155735427
1550 -1.8347076478191917e-06 1.617281287676396e-07 1.690903782207822e-07 -8.89846948603994e-05 -0.0010444066128119129 -0.00035511093965460327
164 -8.550949611040254e-08 -1.7624394909399877e-07 -4.892091299475297e-09 3.625104231610757e-05 -0.00037333080357297065 -0.00021287928387027553
227 -2.488934423581289e-07 -4.7437521717829665e-08 1.5416808371189743e-07 -0.00018426927269401782 -5.189605021264398e-05 -0.0002611007114915797
545 -4.091812572268938e-08 -1.7249037920676395e-07 3.48514401132897e-08 3.787286249925325e-05 -4.592831136451193e-05 -3.2771336263061297e-06
455 4.2442895422016685e-07 -4.47777019137552e-07 1.97214472591647e-07 -0.00011330621306453767 0.0005716321449790027 -0.000264661416276621
1565 -3.5519702311944706e-07 7.721607734613014e-07 3.4879472149130004e-07 -0.0003609282423172926 -0.0003102803377178709 -6.219797067128084e-05
1171 6.416262886788496e-07 -6.324760802872136e-07 -2.9713567593503407e-07 -0.0002369190284764672 -0.0007514044684290556 0.0001737979253637893
22 -2.2508305663131088e-07 -1.2982786194005165e-06 -2.497174442826559e-08 0.001079209916283162 0.0006649254042718222 0.0006252239237253544
321 2.869756478322495e-06 6.880378989479362e-07 1.022527990457116e-06 -0.00015432448658673993 2.5008846037842297e-05 -0.0004500443956357536
1374 -1.5968760404824476e-07 -5.79918639367008e-07 6.278631053825147e-07 0.00036984817402140486 -0.0005820002498120373 -7.067710430964668e-05
727 8.138166369985942e-07 -6.27281351515712e-07 -4.193582965144993e-07 0.0010292116915855162 -0.00020164365935242592 -7.029081137751255e-05
231 3.2560027292154536e-07 3.084992641650644e-07 1.4120932574071487e-07 0.00011247048632549341 -0.00033667978571622005 0.0009572853111314458
687 2.7561931993035993e-08 -7.598424610433074e-07 -1.576163807493478e-07 0.0002909414118107821 0.0003438865334807767 -0.0007193085758158631
413 -7.375546488990063e-08 -8.362280300269089e-07 1.4320396349342835e-06 0.00016361640062286442 -0.00033703357302974506 -0.00045389513344265016
422 4.3414404058017817e-07 -1.8406503851568884e-06 -2.033682429688473e-07 0.0003536266325533857 -0.00019972132928086704 -0.0008516897159509836
1358 1.1204287935885378e-06 -8.291152330117678e-07 5.962868817069027e-07 0.0004228605411264559 -5.043228150095297e-05 6.153450683164254e-05
722 1.7152145586931673e-06 -3.220618677895872e-06 1.1700163027065878e-06 0.0011252197959706518 0.0005369178923363733 -0.0007514363410789279
540 2.3844371322114715e-07 -2.1827173306587933e-06 8.074084604886648e-07 0.0009188538024247211 0.00015326605607927918 0.0007208439803639375
6 3.2112933848871604e-07 -2.8487458185477285e-07 1.1473761923055415e-07 0.00024917275685043094 0.001764837400295121 0.0013781265217167084
789 -9.329879070370542e-08 7.744228485434061e-07 -1.0181772248617394e-06 -0.0009132020516770876 0.0009387157082364202 0.00021572848454333118
418 4.143607709512956e-07 2.502307908369982e-07 3.3407816696060646e-07 0.00026240977543612635 0.0005619727504748896 -0.00013976116649883563
112 -9.004401330732068e-07 4.6058618665644795e-07 2.202203191157804e-07 -0.00013460110891066936 -0.00038135426924627077 2.213080397713718e-05
345 -6.270434733180393e-08 -1.2668272512567276e-06 3.244033155691684e-07 0.00033202749489983106 -0.00016377175167131737 -0.0004850786860152446
2083 -5.626547134516596e-07 -1.184638341256295e-06 5.712252017502462e-08 6.523543058163355e-05 -0.00012504675929309465 -0.00039956777669945283
86 -4.752159803955833e-08 -8.344557168320592e-07 3.4600300662231145e-07 -0.0005583611589424477 0.00040825521564705246 0.0007594457256642679
169 2.520041945289457e-07 -7.130919193468041e-07 6.337130762945635e-07 0.0002054897766847802 -0.00027345979236895017 -0.00041944529487306326
486 9.766366677831004e-08 -1.784395302391512e-06 1.5366683794173596e-06 0.0002308063000123739 0.00043454678009354614 0.0007071624714971126
1257 -5.285156336422452e-08 -4.7612409726126444e-07 5.75294486106724e-07 -0.00040155462897035473 -0.0002902509942115386 -0.0005171091843064454
559 1.0265620496220876e-06 6.419528387114539e-07 -4.3931119746820406e-07 -0.0006160189231507988 0.0004061912303112993 -0.0001565528057978635
296 -1.262345135104061e-07 4.7943575059772e-07 -1.190309213847319e-06 0.0009765909681031782 -0.0002976443604449966 -0.00028647680628854724
278 -1.032046767012724e-06 2.3160096123157676e-06 7.650118259359734e-08 -0.00035218304685380995 -0.0004084673345322956 0.0001716579081471683
1164 -2.1203127866858594e-06 3.759563096944729e-06 -5.197695618934376e-07 -0.0006675874213549481 -0.00020488620542245895 -0.0010534233609434465
1146 4.231411557793302e-08 -1.1835945096884217e-06 3.856132417997733e-07 -0.00034749656107749694 -0.0004580596373592197 -0.0003228793535129507
528 1.4376087184136846e-07 -1.8314241072423775e-06 6.179565685025206e-07 4.243472219031656e-05 0.00019359887175854638 2.105498151115427e-05
344 -1.2333044805312534e-07 -1.1331043927188115e-06 2.0317723465629232e-07 0.00017030796200367325 5.910141098822369e-05 0.0007043912054342706
331 2.1550425524039337e-07 -1.9544021912983786e-08 2.2003469351988621e-07 0.0003840816540369102 -8.17737717688763e-06 -5.642648328794259e-05
781 3.9316669797012653e-07 2.1142470932523006e-08 2.9534489879976688e-08 0.0001829022446948465 0.00047410910056248045 0.0003200953097157988
445 -6.893257803035418e-08 3.774772609787989e-07 -4.4477131116500024e-07 0.0007133567486183506 -0.00011427929473628549 0.0001341650062345042
1033 1.265875035766408e-07 3.332080138862151e-07 4.370132470738755e-07 0.0001839079227886704 -9.75052465463173e-05 0.0001946075229301065
1293 -9.753172609891181e-08 -3.395489716573186e-07 5.371006835760594e-08 -0.0003605294655018815 7.54086500838479e-05 0.00012132441738737975
1226 -3.149518390104381e-07 -6.023167169781576e-07 9.382364222493683e-08 -0.00045091671287165124 -0.0002500173264999436 0.0001526666490002383
430 4.616848784951866e-07 -4.5775895920613915e-07 5.382558229877911e-07 0.00027547050589813826 0.00019476046042739303 -0.0003592934384640269
7 -4.2447274313764395e-07 -7.192057108727632e-07 -1.0077289486418706e-07 0.00017341509769181794 -0.00033219619683627416 -1.7853151317034572e-05
1576 -3.0399529515992173e-07 -7.238504576709099e-07 -3.4528128201037893e-07 0.0003771090138573927 0.0005702427410644147 -0.0001158410985413124
613 7.984792834531277e-08 1.7460776151918183e-07 -3.6735257371217644e-07 0.0002729480565979363 0.0002963972735431116 -3.343680813671255e-05
319 -2.0440570065714426e-07 5.0144386527220226e-08 7.715521331622439e-07 -0.00018651592730608698 0.000276717084501681 -8.651604670794118e-05
713 3.906511423732807e-07 1.1645619780383824e-06 -3.383578966120547e-07 -0.00036457853436388344 0.000259571647105449 0.0002701091502556235
68 6.601586635303043e-08 1.9321948098519047e-06 -1.1943680040215491e-07 7.00753609846459e-05 -0.000810149554435582 -9.055464327216393e-05
619 -1.4997288240810686e-06 3.4275802488289813e-06 -3.038183557355965e-06 -0.0005578943617140467 -0.0016565947692126328 -0.0007011654430343521
630 -7.309740389659547e-07 3.9863176033629535e-06 -1.1859145267850925e-06 -0.0002660152579751559 -0.0005945294953574838 -0.00044638931535395123
835 -8.567421316017859e-07 4.3771561833878456e-06 -3.333665405622796e-07 -0.003093656186580747 -0.000951371779738001 0.0005514752271679951
78 -7.650779572481057e-07 1.6891391470788171e-06 -8.605981170425642e-07 0.00015372630270392974 -0.0004702362143011148 -0.0010403779782093225
468 -1.7266207466261936e-07 -3.867223568267637e-07 -1.1766452506496901e-07 0.0004831711365718782 0.00042444312964675426 -0.00018012177814131158
498 1.2123570228418092e-07 -2.0469873858384578e-07 8.132597786323264e-07 -0.00022609297616601952 -9.926525560123158e-05 0.0003946841970789008
215 -1.0243833738282383e-07 -1.2451474807553122e-06 2.3855489688692828e-08 -0.00021277121733164644 -0.0001420944007790949 -1.4820707423329684e-06
701 -3.7260453813228954e-07 -7.423657248623333e-07 -7.195720183995563e-08 -0.00013772877137625475 -0.00032520634212256956 0.0001237717859937883
409 -8.410614190091256e-08 -6.92433759150822e-07 3.7879915776785e-07 0.00042851812495075983 8.376688094396881e-05 -0.00026034745366816675
745 2.3651082583593705e-07 -1.0461393413353275e-06 -5.922055864706016e-08 -0.0005517355032448368 0.00015834191798882967 0.0003875513389480389
62 1.3250884996016451e-07 3.216342559714121e-07 2.1544277605222026e-07 -9.045624021653998e-05 -8.255075201959711e-05 4.441030701281991e-05
1372 -5.638248980910599e-07 4.7050813396916483e-07 1.2454508324328837e-07 -1.759521638825295e-05 -0.0005551047174679857 -8.511289644493996e-05
176 1.8024760404458412e-09 2.050457079791925e-06 -4.802502581213982e-07 -0.000245984250978741 0.0006297896308355023 0.00011036503156656417
252 -5.74373469506343e-07 1.983344170990039e-06 -8.744102081264791e-07 -3.082900231471979e-05 0.00024696279333632777 0.0008398844193792434
799 -8.645814662359651e-07 4.480802851999421e-06 3.690782218756134e-08 0.0004030713394165374 -0.00016765633633318967 0.0008044193881050344
570 -1.096213922762887e-06 4.605547135966831e-06 4.8153003891531405e-08 -0.0006676148088536583 -0.0005105085995593179 -0.00038683834158334584
325 -8.395521408910701e-07 1.8060521807091207e-06 -7.019382359080424e-07 0.0008704782646764667 0.00024061091410811875 0.0005022308097590155
342 -2.1573047536310917e-07 2.6642598949473247e-06 -1.0632799463812772e-06 0.0007099738279371567 9.705049063743277e-05 0.00017025354446981934
1359 8.49167230839419e-08 -1.6488533745105264e-08 -1.1754522775183487e-08 -0.0007414869635531694 -3.997711261858556e-06 3.7178344432313314e-05
510 -1.1089539246755795e-06 2.067219692602969e-07 6.759166955302171e-08 -0.00021907946309403608 -0.0003952293980052284 0.0002893821141301184
287 -1.513317141126344e-07 -5.819987083532042e-07 7.72343106358405e-07 -1.4006021134287774e-05 4.0773491117144935e-05 0.0010897512968546731
2000 8.433875211744878e-07 -1.3734000043031364e-06 4.014453409816456e-07 0.0008772030856805766 0.0007255246620611734 -0.0005719266146826695
201 -2.50622824800036e-07 -6.795943805246957e-07 -2.039100172730254e-06 0.0001494775862417278 0.0003498043112882966 -0.00026378081215130576
1445 -1.222793073113458e-07 -3.3451864728825386e-07 -1.860719010792687e-06 0.00027039463254611 -0.0002849741320211492 0.00025951799815325635
525 -1.436123325223257e-06 1.695444117445563e-06 7.032127548277887e-07 0.00018082782328868936 1.5763416558630313e-06 -0.0007568585207361391
47 -5.10438376902593e-07 4.643053980653841e-06 2.7432337260459384e-07 0.0002988383143610301 -0.0006286508099310029 0.0001841036285025173
77 -1.0408877648862922e-06 2.5881906374473845e-06 4.3216537587682785e-07 -0.00016615676026987127 0.0005211082012520573 0.0005654557522502487
1295 -3.318682318090478e-06 4.061957013333284e-06 8.035678312748099e-07 -1.3677184191585156e-05 -0.0012530402498423347 -0.0007398077834319178
64 -2.2726396451436837e-06 2.675767042439216e-06 -8.400860481724156e-07 -0.0018793856150876955 -0.0018713788575834556 0.0003332802020916831
739 -9.295102182882102e-08 -9.221630690676014e-07 3.1207067380296036e-08 -0.0003951250088288643 -0.0005567441137002995 -0.00045765958540177736
1487 -9.203711526206464e-07 -2.220266206343381e-07 -4.866276031687696e-08 -0.0009817237619656207 0.00030602358063295783 0.00047116479618751933
438 -4.812120131113994e-07 1.1172592011769702e-06 -2.1292419858013852e-07 0.00048399975862628195 9.306896176167419e-05 -5.824089700131152e-05
812 -9.581970463562308e-07 1.8529825778775514e-06 1.9566794206074494e-07 4.250116631711746e-05 -0.00010378172866201074 0.00047739671675561514
1019 -1.1521567994968285e-06 1.8243827021264281e-06 3.700465985229905e-07 7.141727372660441e-05 -0.0005241498839508739 -0.0005701030475457874
600 -1.2643414780869486e-06 2.409603210752774e-06 4.512155424388287e-07 -0.0006851537117338371 0.0007458338422315963 0.0007601759708455452
36 -1.2305467970039655e-06 2.260338348139469e-06 4.606080755883202e-07 0.0006979932934809393 -0.001026793092961582 -0.0009012023028760228
1443 -2.379380723182808e-06 2.638535304437522e-06 5.143705254628525e-08 8.18812858702646e-05 0.00017926137815497346 6.804503701434264e-05
1341 -1.0162523035077401e-06 4.4050816794895585e-06 -7.051793377602184e-07 0.000300867657645837 0.001312819614969305 0.00021690058768152003
499 -1.0913440257600668e-06 2.9101212102398848e-06 -1.1046851724904253e-06 0.0021767208687449263 -0.0004559848767887529 -0.0011298977307279909
669 -1.256397616183055e-06 2.0615003404042313e-06 -8.119640895920672e-07 0.0007396150689013624 5.785543015683854e-05 -0.0002614601043473719
662 -3.4042808632743767e-06 1.5877168640869323e-06 1.874203276451172e-07 0.00015168763565266802 -0.0011110697416902504 -0.00019579645233797289
314 -2.403563070203222e-07 3.864614106458517e-07 -3.226450297859895e-07 -9.7408288977449e-06 -0.0004529312901889452 -0.00038534426854161833
1993 6.36636506985659e-07 -9.210598099714809e-07 1.6661716114205366e-08 0.00016852201429166596 -8.755241000370039e-05 -3.88691469716826e-05
269 -4.4222781534554563e-07 -4.168873212387762e-07 3.0594023728904577e-07 -0.0005864333641206151 -0.0003575640658227466 -0.0004918687895023701
2075 -5.618368641019421e-07 -7.649539877072686e-07 -4.092014652441927e-07 0.00019229088025538043 -0.00013918252080858176 -0.0003269782022292768
905 -2.0575551942141065e-06 -2.0625549312941873e-06 -6.789208426042806e-07 0.0007906693803174527 -0.0015030580198584734 0.00020441558285370912
556 -1.9408985430248615e-06 -4.5662996792837073e-07 -1.0871378048743045e-06 0.000842969102419401 -0.0008880262691066591 0.00010272686082978895
1853 -1.477062975159732e-06 6.149116239861274e-07 -5.900007586054572e-07 0.00022992790456003093 6.552045617115608e-05 0.00010326591765090385
746 -9.382018947577873e-07 1.9743581848458e-06 3.6808530653963376e-07 -0.00023431857194982736 0.00015444581088378296 -0.00012694236035783204
340 -2.7235565709776495e-06 1.7168502767417585e-06 -6.577366309667045e-07 -5.652908584797717e-05 -0.0010235639451970384 0.0001556409720901416
424 -2.126577722640783e-06 2.033080463778615e-06 -1.6874498343185108e-07 -0.00038402587086791584 0.00044289566475281026 0.0013309878167848306
317 -2.4177378146643727e-06 3.4753673203485314e-06 -8.933459459802992e-07 -0.00023508119065382825 0.00022159562007507117 5.1764413181014265e-06
1175 -1.6315266641642487e-06 4.0084849500853755e-06 6.25570828361863e-08 0.0003060202956981998 4.8888042391693126e-05 0.00010858398274405536
709 -1.5416324539806927e-06 3.329840125589295e-06 1.6873802077260853e-06 0.0005833282712563322 -0.0003352057686999886 -0.0006628617309318861
130 -1.2151525320221575e-07 2.741306651373066e-07 2.38589278175448e-07 0.00033942347397272516 0.0002225791532387706 -0.00021412536982604095
449 -6.309648149170306e-08 -1.565698089619911e-07 1.974492786150024e-07 0.0002125260422712884 1.2509860727792271e-05 -4.049695734731556e-05
245 -1.998494649141493e-07 -1.0140927842908605e-07 -2.1846563161466998e-07 -0.0001342546678911933 5.1508095311774805e-05 0.00011616038170391991
202 7.359745986286415e-07 -5.407726877889047e-07 -1.8625292887598617e-07 0.00020883196933200361 -0.0005186538944090153 -0.0003964780532845012
1593 3.637309026039292e-07 4.309105769931288e-07 2.1379709357450614e-07 0.0012926547365609813 -0.000422355870743907 -0.00010407636860035943
1305 -3.195935748988302e-07 -1.215121142800658e-06 5.550175119413066e-07 0.00033866469269702807 8.286613502875856e-05 1.0585850383567401e-05
2079 -1.7687558246600273e-06 5.224080643819596e-07 4.1903137046342015e-08 0.00023413147405556596 -0.00010152588174008989 0.0001015481917213622
1843 -1.4921256049183315e-06 9.955933142413702e-07 -7.392980275557769e-08 0.0001310685862926877 -8.876503901636411e-05 6.5355321494201e-05
811 -1.7324909800051278e-06 1.2970616350288572e-06 -4.5326513534996777e-07 -0.0005398846598208469 -7.629486777222818e-06 0.00016951376311872656
152 -2.160757565323385e-06 1.4843938423250623e-06 2.504666317349426e-07 0.00020972910965799283 0.00021028727643534808 0.0004818053338121252
725 -2.2624909834957395e-06 2.2668053340767722e-06 -1.3426194783403508e-07 9.527009381696361e-05 -0.0003211737922208997 -0.0002279391918412336
487 -8.231966254989374e-07 4.182730844828979e-06 1.4132954625670885e-06 -0.00012005915083262658 -0.0009265121085040488 0.00015147174365288732
791 -2.1441562862929266e-06 4.11426813560525e-06 5.059041925038576e-07 0.00077366635545925 -0.0010159642219960306 -0.001247383147829133
25 -1.0758461733521722e-06 2.0378946537244342e-06 3.025020191055176e-07 0.00017464461940464225 0.00034710410348234557 -0.0003493653197479391
796 -1.5520728470592866e-07 -1.4571645322801543e-07 4.2543233117163233e-07 -0.0003670982306289659 9.713534395553345e-05 0.0009344556230018661
1299 -2.16950140443084e-07 1.3200700897292872e-06 -1.436385522620558e-08 -0.0019884693597028704 0.0011784526153982501 0.0003307948864456948
1724 -1.7702607494121802e-06 -9.091675739072372e-08 3.739799164988483e-07 0.0005275411097675282 0.0008396541147840187 0.000539146772191907
1302 -2.0319249266019346e-06 7.790198858083908e-07 -6.480903437905812e-07 -0.00013510300719439184 -3.430268054998546e-05 -8.779182265111044e-05
1504 -2.021540888476626e-06 8.823837542040763e-07 6.090967586974162e-07 7.575446286507741e-05 -0.00010797152398702456 0.00012331145608844468
258 -2.363174764134699e-06 9.685517661151648e-07 4.488073250858989e-07 -0.0003095136365647679 0.00016457690989046694 8.505534240817352e-06
820 -1.9829545128559802e-06 1.4129203313327861e-06 -1.721217701802528e-08 -0.00025662131283062843 0.0002695077657529024 -9.96598238090538e-05
824 -1.6616509120016396e-06 1.5627343542669162e-06 -4.046298100191107e-07 0.00025541759167552473 0.00047288438217470846 0.0003045869162796937
531 -3.296820761893418e-06 2.286465201544669e-06 -1.0813142306963435e-06 -0.00021732381110695754 0.00027997891944669734 0.00039495609607573224
305 -2.2821522962796133e-06 2.4054888367892846e-06 9.893111299678478e-08 -0.0007940969149417407 -0.0005211495315137264 -0.00031372142184229855
450 -2.4044842611042033e-06 3.150543778466863e-06 -4.3824983595629547e-07 0.00016230246658486693 -7.760475786945397e-05 0.0005428607581494054
106 -3.000251933823696e-06 4.288063467648914e-06 2.040968975489204e-07 5.990273701146267e-05 6.608678666788095e-05 -6.42263959710645e-05
766 -6.158693331295466e-07 3.376289213181912e-06 4.360496320399134e-07 -0.0004475332004811879 -0.00016956866433809226 -0.0007178882160582853
83 -6.960569818120061e-07 1.812486816899872e-06 5.034417285448527e-07 0.00016019784691152146 -3.0686324910554874e-06 0.00024210525547563053
828 -1.7921943372933718e-07 1.2882904083778317e-06 4.787745406848787e-07 -0.0002641341141282837 0.0001874110078119155 -0.000492203096540425
1689 -1.5811884436388922e-07 3.751617889936138e-08 6.013433068241894e-07 5.091377517705559e-05 -0.00048729459069732665 0.00028829941671971315
1495 -6.954784382318575e-07 -8.114879484125517e-07 5.599474630932368e-07 0.0004660960073158091 -0.00023146772049096502 -0.0005006649857624749
788 -4.830280183376706e-07 5.579104200302865e-07 -6.398635434202177e-07 -0.0005042294249153312 0.00012486626155264774 -0.00044281738534938784
226 1.1108301579524692e-05 -3.1714848205134756e-06 1.099943103387795e-05 0.016765758153476515 -0.0071638607865873085 -0.027409942286420665
333 -1.4616111246055507e-06 7.576755298477777e-08 -4.1384823324553157e-07 0.0001523909911046151 0.0004704199135735574 0.00013961399381684183
646 -1.0391501421265197e-06 4.977291436948648e-07 8.947170432883741e-08 0.0001291527280633747 -0.00018146331379010166 0.00023509734923252794
156 -2.019712789804423e-06 6.028327783245774e-07 4.994368688163798e-07 -1.4353118178113965e-05 0.00010033022508855279 7.98808032826442e-05
621 -2.3340225943966545e-06 6.351942932835622e-07 1.5697691454700444e-06 0.0008274698521223925 -0.00027455144304885357 6.016884540242232e-05
1935 -2.950259538645825e-06 1.0942949334077888e-06 1.628518390894537e-07 -0.00014358416692085245 3.7704486408543885e-05 0.00026892615275547695
384 -3.5459026430611547e-06 1.9913015400695435e-06 -1.4237077674123939e-07 -0.00029954711266810753 0.0003423778942581719 -6.286435859496186e-05
567 -2.980999115853957e-06 3.1702677505691753e-06 5.40469815268408e-08 -0.0001428673210145387 0.00030977448923404945 -0.00018753093101063573
587 6.917319951609173e-09 2.122507683312853e-06 8.165123415452176e-07 -0.00045338440352950157 0.00036193653046546353 -8.752987784098145e-05
1582 -7.343219514625765e-09 -3.3200597707719e-07 3.2788538071045055e-07 0.00017202496328008952 8.433462038770912e-05 -0.0002194429636389955
986 -5.929335023276395e-07 -7.237426645727433e-07 -1.986444477152719e-07 0.00020568234217941395 5.295921581680932e-05 -1.8389976238091742e-05
659 -2.1875780515103227e-06 -3.404464379204358e-07 4.2662321518884484e-07 -0.0003664205088308061 0.0013720095780407255 0.0015549305667335214
208 1.1613818442218032e-06 -4.3879320985413523e-07 -1.7068816250984693e-06 0.0004035786735518237 0.0005160870960006166 -0.00016793128517467903
514 4.654667280574352e-07 -2.90432951757089e-06 2.4514627544420076e-06 0.003072446727153237 0.0011147068568001116 0.00023702955478587375
756 -2.661553060172641e-06 -4.0528835795146165e-07 3.2603667178180307e-07 0.00016779759379128556 -0.00070988943706248 0.00011629758061129808
1430 -2.3229962159319276e-06 8.949375677902829e-07 4.76336665753473e-07 -0.0006080374878076802 0.0002845412532635174 0.0008284565658448616
576 -2.79159157290428e-06 1.709366813209318e-06 -3.3515689180827266e-07 0.0006342614854100125 4.521628193378418e-05 0.0003000722241021316
637 -2.6840940096469126e-06 2.5871096692737073e-06 -1.6923322775569326e-06 0.0005809936981573758 2.5946043839545843e-05 0.00022471419236117125
515 -2.513798679272623e-06 1.8192715551662194e-06 2.7947999275299417e-07 -0.00048531506258734324 -0.0004964512337025506 -0.00023124589123463754
1464 -1.963904269959597e-06 2.642983392246457e-06 -1.9869708688944094e-07 0.0005101627400282241 -0.00040889244998398914 -0.0001888123061159818
538 -2.4775848778203335e-06 3.7008279753815512e-06 -6.614563797554207e-07 0.000318550359734421 -0.00033040078467359705 2.7007467799445486e-05
311 -1.7964292932221582e-06 2.2347559804782837e-06 -4.829652693354969e-07 -0.0006575733506272936 0.0006240156274071073 0.0011605148278524542
790 -9.020371794595551e-07 1.9516139171475568e-07 6.735870128155632e-07 0.00030769370751520495 -5.115193277585327e-05 -6.281638439072117e-05
2056 -2.5891426986862735e-08 -3.810098511799439e-07 -6.559197934915808e-08 -8.12305913310335e-05 5.778137982211799e-05 -7.103961665881076e-05
2034 -1.4158905432070978e-07 -7.35329795496356e-07 -2.4993898109392397e-07 -0.00023458041022151913 -7.703166307193783e-05 -0.0002650567147055539
123 -2.3162033973253105e-07 -8.435947396499045e-07 -1.8023409398567182e-07 5.295195000100492e-05 5.114373057594521e-05 0.00028559549880798654
1098 -4.672290526106897e-07 -1.5279696995271313e-07 8.508245839298558e-07 0.0007068104663220759 -0.0003151840405293672 0.0006392262133195919
1136 -2.0136466692238252e-07 -1.270426094744587e-06 1.5646708231632683e-06 -0.003369781635077194 -0.0008056883973441298 0.001009977934852673
1884 -1.058552298797963e-06 1.7358566240422932e-07 3.6353231576357554e-07 -0.000518436576950531 0.0002811901905243145 0.0007644191882248672
1313 -6.184431357701946e-07 -1.6244028608558902e-06 1.3020260905436499e-07 0.0007947569546359064 0.000381521667836877 0.00025214163996612463
2180 -2.6912583985617595e-06 9.406184468502566e-07 -4.2470835676694616e-07 -0.00028778539316081265 5.343028320457688e-05 0.000508728306251824
1767 -2.416719585736092e-06 1.167072113082254e-06 3.6353303068588197e-07 0.0002778012330976689 0.0009819070139270554 0.00048004186736089085
1531 -3.9436777445187964e-06 1.7915290160043463e-06 -7.384975354818944e-07 -0.0014363959185560774 -0.0011065234277052225 0.0010464163375546566
1344 -2.917581787110113e-06 1.7652342624819849e-06 3.612302243633563e-07 -0.00018295661103088695 0.00021903418368643442 4.9818096681846e-05
566 -2.9733504183966593e-06 1.8234956533372987e-06 -6.287126851623934e-07 -0.00037412317759668196 0.00012317291505705883 -0.00016709863218726255
121 -1.9622166535501045e-06 2.407693343335185e-06 -7.757117316589102e-07 3.133264687657886e-05 9.024994377511136e-05 -0.00041604113085610717
928 -1.6535043873052159e-06 2.8403762838972764e-06 5.202147395933383e-07 0.00020823947695010654 -6.6259174187488e-05 8.121513021904663e-05
356 -1.2900568552450534e-06 1.8475923697460963e-06 -1.7935479292983964e-08 -0.0015030964345818932 -0.000377211129475289 4.735665704805731e-07
273 -1.729172030089541e-06 1.0997836504525435e-06 4.961755715432722e-07 9.118319648980171e-05 0.0003477338687656681 0.00014916064113893905
79 -1.6518260488712276e-06 1.440277542089698e-06 -6.732932000404065e-07 -0.00042240529367274144 0.0002712406616796803 -6.156947756540664e-06
665 -7.723527960287984e-07 2.849914616265186e-07 2.80175439425179e-07 -0.000244476460503095 -0.00074240150160782 0.0001444781139278694
1084 -5.705229065687996e-08 -7.630541617955662e-07 -3.10589157698613e-07 0.00015946921964422374 -6.956743976430492e-05 0.00024807736687708246
1040 -1.2110778862030139e-06 -9.721679648916254e-07 -5.395079556245435e-07 0.0006097610295549616 -0.0002994300870412792 -0.0005292621881854604
476 -1.593980326216795e-06 2.7719775139210623e-07 1.555105899842502e-07 0.0001772060565100464 -0.000795829230065951 -0.00044847915769384583
618 -3.96914189115386e-06 1.0375011431728452e-06 -1.1186214417743214e-06 -0.0005548902385663897 -0.0009760309531054811 0.0008838482183346356
926 -2.6984264310612775e-06 1.0118480987537913e-06 3.864577041583275e-07 -0.00013541921453087832 0.00030201320560429537 3.7384652529058456e-05
1042 -2.9318900243457903e-06 7.996893603015346e-07 3.7603215314874157e-07 0.0003547427493744307 -9.241593927197192e-05 4.245838103274164e-05
1069 -4.0082315432545645e-06 1.6147471460887761e-06 -8.78802644861224e-08 0.0006632229667530392 -0.001294074660246141 -0.00012312331152513243
414 -3.181960384269937e-06 2.1521182522578837e-06 -3.552615100612937e-07 0.00046655100619079896 -9.806204162145796e-05 0.0008713784599122188
1046 -3.279337006126145e-06 1.8420186014592728e-06 -5.649522085058455e-07 0.0003915919711581913 0.00016557220161405995 0.00024408909833389494
1896 -5.030525238939307e-07 1.8108518101328325e-06 1.93365651795206e-07 0.00027178190928281193 -0.00036008517655991903 -2.0085637875754914e-05
191 -1.2965551548569415e-06 2.324329969135161e-06 -2.1238028179564424e-07 -0.0005634745863132235 0.00019851000540283667 4.110145806880848e-06
1399 -9.714490154938047e-07 2.1610492330311623e-06 -1.2756023213489883e-06 0.0008600895857039626 4.7242643172463855e-05 -0.00018300121930415938
248 -7.964060077174061e-07 1.4023348900967151e-06 -1.3416245127887191e-08 0.00027070157386157527 -0.00014651229847754678 -0.000353410666681837
1107 -1.8102939457869216e-06 2.607179600594821e-07 -1.6770355065925454e-07 0.0003173380494947109 3.1405775218445794e-05 -0.0003445917757856988
599 -2.541486310800838e-07 -2.10011267413272e-07 4.901551051677112e-07 6.313095105731038e-05 0.000248613880963224 0.00012118063463418318
1275 3.1062897562221357e-08 -4.954202498597277e-07 -2.5761483237512235e-07 -0.00016580346334483858 -1.5156531872278774e-05 -0.00021930596956767958
602 -9.803810582070193e-08 -4.3139890840813596e-07 -3.9703141138516905e-07 0.000212679773056887 0.00015306434387885368 0.0003088804606113766
842 -8.144119093373538e-07 -7.625316457169686e-07 3.950507606277545e-08 -5.289213181704906e-05 -0.00026572192281859884 -0.00026859023502559174
2128 -8.149661112766763e-07 -1.0460679129839098e-06 9.98036440239776e-07 5.855657084717629e-05 -8.539973655958768e-05 0.0004996166761411555
2036 -1.7796576256300483e-06 -3.1686950052534205e-07 5.273469009794353e-07 0.00016752702605916684 0.00035287773602009755 0.0003498341893059532
470 -1.5104293695644e-06 2.413553605758306e-07 1.3455061557348268e-06 -0.0005529335978790863 0.00021163221587744017 0.00023696707890365277
1437 -2.736572604395884e-06 9.756108877886506e-07 3.409569039580982e-07 0.0002478402505003091 -0.00030829003116577565 -8.141103084926875e-05
1001 -2.9140909468012357e-06 2.0923393911404564e-06 2.4548070836159606e-07 0.00017822055676666455 -0.00024273189968069763 -0.0003591538760083291
1279 -2.535247004378212e-06 1.7585845972688168e-06 -5.127503915822996e-07 -0.00032268665813779825 -0.0005550921681950291 -0.0004808497665198797
677 -1.7811397341107217e-06 2.3173461951063215e-06 3.5174562235175035e-07 0.0006403263864955435 -0.0014334222342034836 -0.00040697859675120764
463 -1.2830232709163649e-06 9.864456196595468e-07 1.8585125787032672e-07 7.245779727078928e-06 0.00010869334363688448 -0.0002794562955309408
465 -1.0430189077473241e-06 6.502083633975129e-07 1.4564086268526858e-07 -0.0004167890500112249 3.2518142064054654e-06 -1.3381429261676826e-05
1387 -1.3196955158735165e-07 -2.2852609105126556e-07 -4.949027081627658e-07 0.00019886926412872379 -6.888827682695475e-05 0.0003011549259903207
150 -2.3223692392607227e-07 -1.0745286389142442e-07 -6.265988628555924e-07 -0.00026329461082759555 -0.00012959900075552898 -0.0001705331236468496
475 -1.91448927757795e-06 -1.0138655530395323e-07 8.547675469785192e-07 -0.00017287972652216927 0.00020944892538980547 0.000316557619226976
110 -2.196097724723231e-06 1.3865475643615115e-06 5.670820975551631e-07 8.275573918663666e-06 -0.00014348242545218719 6.067175247749484e-05
82 -2.7849751435572695e-06 9.096641570850519e-07 4.5849183409111825e-07 0.0002059703676976893 3.064540253156301e-05 -0.00021918735690133273
210 -2.237047018544805e-06 7.839435987558479e-07 8.827440809108421e-07 0.0004761930483264681 -0.0002897935152523003 -0.00014749719112655855
846 -2.2487041084418575e-06 5.356603737831334e-07 7.004228260976932e-07 0.0001031798097953687 0.00025228080657932825 -6.966185561969346e-05
469 -2.7465828400438014e-06 1.7532469413407344e-06 2.070323036076657e-07 0.0006476847017459068 0.00011830967829461963 0.0006099417168790754
415 -3.690364308378071e-06 1.179425621169193e-06 5.398313069658125e-07 0.0004171334328913294 -0.0003570086027245335 0.00042511331058007123
1192 -2.4119538943705775e-06 1.0624703568000608e-06 9.456582452818929e-07 0.00018030291799252005 -0.00010561394193151313 0.0006114368537594058
1026 -2.6253120378732893e-06 9.547386166543754e-07 -5.626821917753391e-08 0.00045277868061704003 -0.0002011867388709138 0.0003937978399300985
651 -2.12340025899751e-06 6.163890509916165e-07 4.34977048268725e-07 0.0005059560206292762 0.0002535760863199731 0.00020509244859371538
479 -4.70778548333966e-07 1.0338149552024984e-06 -5.231585299805441e-09 -0.00030491942833568486 -0.00029590149237200563 5.467060595371433e-05
1540 -6.693447904980773e-07 7.01037421688457e-07 -9.423945597493136e-08 -0.000180413306455738 0.00037796289398275514 -0.00010213919884569661
809 -2.729706415145613e-08 3.387450901458406e-08 2.8441471449034567e-07 -4.866785011539529e-05 0.0002013349154563023 -0.00021765901019142757
200 -2.2130576622542213e-07 -3.5542520035043755e-07 3.9962395223643063e-07 5.5521755003387906e-05 -6.368383485527434e-05 -0.0003109172743549862
706 -9.674446825296183e-07 -1.0017424309632148e-06 3.006295723425379e-07 -2.3688243161611507e-05 -0.00018861739489319375 0.00023025413921467223
160 -2.3297962210480555e-07 -6.334068903233508e-07 3.5165623648151935e-07 -0.0002247716424964443 -6.928776527099649e-05 -8.96574551422067e-05
1035 -4.094130468322236e-07 -2.724301516971759e-07 5.653861371315278e-07 -0.0004434839550040049 1.823508133520221e-05 7.416684378624401e-05
822 -1.4452694046124763e-06 -3.273085360466963e-07 9.20655900490732e-07 5.8264331899302004e-05 -0.00015337403803537754 -0.0001578819328479915
980 -3.139574453039923e-06 5.229342131167674e-07 7.987261252839172e-07 -0.000754389801375313 -0.0013276314368902142 0.0010073202214244742
762 -1.8251935082331738e-06 5.687185439607049e-07 7.858625174053113e-07 0.00010180231917669773 -0.0001290044745873978 0.0002354094657505375
27 -2.0849950483130487e-06 6.022489943914351e-07 1.4940203942367195e-06 -0.0003780929254196418 -0.00017607740132652457 -3.709658787424608e-05
96 -3.6018489657584977e-06 9.56519586391954e-07 1.067986935540798e-06 -0.000495761194075499 0.0008231682764435074 -0.00017822099079592231
2195 -2.393481738971539e-06 1.0497517547338024e-06 4.1052498622458177e-07 -0.0005590145527858218 -0.00010527158129790925 -0.0008028718739996287
400 -2.6147833841879102e-06 1.0404601791230183e-06 7.246003444342699e-07 -0.0002645982042229706 0.00011499141919251755 -0.00015241163392580313
1525 -1.788720963836687e-06 1.501264059340768e-06 -8.663203073046199e-07 0.00016514352114065776 8.341353232024171e-05 -7.59043136847456e-05
963 -1.8157570645717531e-06 1.3596384293918299e-06 3.0115906374384996e-07 6.307501783340956e-05 -0.0003878339310882739 -0.0005900765222120515
429 3.053041215853323e-07 6.620506358568838e-07 -3.1841097736762093e-07 -6.64378137573011e-05 0.0003126292593750525 -0.00031730485632815224
952 1.4533404175184972e-07 5.577793180306009e-07 6.114698720667072e-07 -0.0001695114866597514 -0.0005295411082148451 0.0008866901244787198
339 -5.916889891688348e-07 -5.057783961808828e-07 4.096918399783952e-07 0.0005702371358982725 -0.00031752349017969913 -0.0003233635571389713
1829 1.1698034618055257e-07 1.0175140699595563e-07 -3.175293436361342e-07 0.0003775035633383597 0.0002519226963322799 4.853397089124532e-05
1493 1.0294243001959127e-07 -1.665596760961489e-07 -6.474740708562758e-07 0.00013226473223328184 -0.00017737794205076578 -0.0001548215867265562
959 -4.846928763080785e-07 -5.152994324607517e-07 -1.8682975890521123e-07 -9.649809995574455e-05 -0.00018908632678713382 0.00026717027468086866
365 7.132995670406589e-07 -6.92422827127524e-07 -3.0159146697381553e-07 0.0002674372961106336 -6.002194388672854e-05 0.0007796488112558947
240 -2.5664571616930587e-06 -6.082896922517226e-07 3.5673655772687096e-07 -0.00014965152211313763 -6.475265174204726e-05 6.326250065466994e-06
255 -1.6625424676258982e-06 8.014873175414581e-07 9.729584101755846e-07 -0.00011279058576212034 5.2352399349755836e-05 -0.00018992109768398242
335 -2.4633371382357937e-06 1.1595516633493977e-06 7.411482991250586e-07 -9.340964343392204e-05 8.374236566474218e-05 0.00018784031743551152
15 -2.4729096583910503e-06 1.2487528884287052e-06 2.1245376283001461e-07 0.0003174759411507823 -0.0003734890087390654 2.046334550687308e-05
623 -2.508540792633343e-06 9.1178746216078e-07 -2.95149184078745e-08 1.6432941831394353e-05 4.496951237020834e-05 -4.370311564712465e-05
1334 -8.272146633135511e-07 1.2314342672492999e-06 1.0468702586024903e-07 -0.00017653595935284737 -0.00021387616801101222 0.0004229576616128816
1523 -6.893872822723996e-07 1.3506253781797727e-07 4.352322954721389e-07 0.00021850512488150002 6.359169659614124e-05 -0.00012443953110481153
485 2.7632042123976323e-07 6.724546768153836e-07 -1.7299300619318592e-07 2.2775898746446444e-05 0.000567377471441991 0.00020112734645850598
1854 -3.432220553460275e-08 -3.1618466508241196e-07 -4.606214067028337e-07 0.00019829399703051617 0.00020690729280893686 -7.049474349567377e-05
1695 -3.400998271025333e-07 6.466175683105509e-07 8.801384816357157e-07 -0.0002076573152250578 -0.001037023299377006 0.00019747174861476426
219 2.5739614917729255e-08 -2.421545827395641e-07 -3.1610700020328003e-07 -0.00011363922825240045 4.094932206584873e-05 0.00021305840969767817
495 -4.889648574556543e-07 -6.696428644123754e-07 -1.0675740356406689e-07 0.00028321370124152377 0.0002795697052711998 -3.586365874207927e-05
1559 -7.557902413528753e-08 -3.2354725106533926e-07 6.434556865030675e-07 2.73235894549667e-05 0.00013369990440669906 -0.0003385528857817962
802 -2.43291888798675e-07 -9.138101339047267e-08 2.527756251924583e-08 -0.00010915116846604916 -0.00039896439361956356 -0.0004020923865264131
667 -1.1424619095086391e-06 2.772097668332874e-07 -2.4350381994916147e-07 2.374909013263077e-05 0.0003795928711588578 0.00010751451597424686
512 -2.371258852869698e-06 1.0065037785789034e-06 5.87059204021928e-07 -0.0002593327576615003 3.109644322012477e-05 -0.00043573938010312745
285 -2.1493873366864854e-06 1.0429826878982842e-06 6.224542980081502e-07 0.00023220475950396917 0.0005841186407322403 -4.784684694389158e-06
906 -2.3473134035527305e-06 1.1675116897974093e-06 5.51589229885036e-07 0.00036547758777626376 -0.0004325192473294772 -0.0003939481923367687
697 -1.7040073072536443e-06 8.070951395324369e-07 8.521533811523777e-08 2.1551415290708754e-05 0.00026965309247259963 -0.0002946440788396236
298 -2.527667595564324e-06 4.395675666915844e-07 3.9014093801506494e-07 0.00032718545798521894 0.0001583187125968861 0.0003189216869344646
542 -6.184083177063634e-07 1.3377519628511668e-06 1.0477965421919408e-07 -0.0006828099200455441 0.00028593422574123414 0.00022437241469865966
1260 -5.275043563990479e-08 -8.431353247215499e-07 -1.764125906943092e-07 0.00038993260700924604 -0.00020597812100230065 0.0003386924409954356
1291 -1.8199840402777328e-07 -6.163449119361213e-08 -5.806908402524115e-07 5.05619301083976e-05 0.000250863492748931 9.986691940815705e-05
501 -5.552015375197965e-08 -3.249149890826918e-07 -5.062634281643138e-07 8.84265897557846e-05 -0.0003896219189559739 -0.00022466553882043524
435 1.529673374348076e-07 -2.1168024007164511e-07 3.177853157409906e-07 -0.0001307335023294634 -0.0005177138443242459 -0.00016116081413147757
209 4.289786983334384e-07 -6.604811353187549e-07 1.002475918812507e-08 9.33872761719176e-05 -0.0003268250146329153 -0.00030713357624567494
26 -7.201201224780965e-07 -8.560379641293253e-07 -6.067091454566333e-07 0.0006471920907384372 -0.0002769895196645297 -1.921125071435706e-05
933 -1.1690544000198546e-06 -1.9612944566795548e-08 -5.081515114910856e-07 -0.00019641579166280958 0.000206924012034556 0.0011987276546355959
1721 -1.2809614981115275e-06 6.461921816201195e-07 -2.2828222733158662e-07 -0.00015788379735064392 -0.0003250045215669701 -0.00035440977825049164
343 -1.1479813422646802e-06 -1.7568336048492647e-06 -7.967034161339063e-07 0.001700077735805138 -0.00013959764766688685 -0.00013403987117938373
234 -1.626890360077288e-06 -1.6362380198706968e-08 -2.9080492472806527e-07 -3.081767040571212e-05 -7.17816300996341e-05 -0.0004233605118918154
1045 -1.4548733924989417e-06 9.028078365149257e-07 7.845612766402487e-08 -7.539499638806014e-05 1.5915771520885525e-05 -0.00021344983917188074
1059 -1.2457957992593008e-06 5.798539786312584e-07 1.3123956281986392e-07 -0.00030574191379068895 0.0004974078277730923 -0.0001274739508085227
617 -9.587117858425275e-07 1.5648732014577055e-07 2.6721549836949844e-07 0.0001157185212889536 0.00020184314754357393 -0.00016257243057096868
818 -4.4311977032395773e-07 8.955401819388737e-07 -1.0067724056053985e-07 0.0005686093500241753 -0.00024744223778040025 -0.00019302565691475972
1597 1.779686653662178e-07 -1.3336646708438685e-07 -2.55399964718269e-07 -0.00011499428003735353 -8.978258851907722e-05 -0.002421755658084105
1450 2.621953631658232e-07 -1.5414414738201581e-07 -2.883846679327554e-07 9.196058547164132e-05 0.000276615552478139 9.317234328536565e-05
109 1.9702490496240874e-07 -5.911296547529955e-08 -8.573244080498333e-08 0.00011349827205421451 0.00045831887496137634 4.4170832298764345e-05
198 -5.129331061081615e-07 3.150827392985921e-08 -4.871799502605126e-08 -3.946472483686105e-05 -5.087287298620806e-05 -5.7439998496438536e-05
1583 -5.543891565325277e-07 -4.5918414996686024e-07 5.606112061261707e-07 0.0006559062122341226 8.92966738578096e-05 1.1830138873643496e-05
257 -5.508871914135373e-07 1.0546109455731374e-07 8.602066109801609e-07 -0.00033565475270450475 0.0001755747411487032 -0.00018864736482018698
541 -4.6329474151463753e-07 2.7868415161405852e-08 1.0484311867102919e-07 -6.39030912676895e-05 -0.00032914623626045195 -0.00020624672205629105
2101 -4.5243389796004216e-07 -4.792993959551513e-07 5.713159302611944e-07 0.0004089502048417173 -4.642063578925961e-05 -0.00010149396403113962
371 -4.133547861001416e-07 4.5052332178733503e-07 2.6193545571590315e-07 -2.577304553437676e-05 0.00011156989923108725 0.00027649133840089776
444 -1.4661124741848971e-07 -9.902021537651137e-09 9.015209208431124e-08 0.00012455041660091714 7.202651430334162e-05 -9.151431010766946e-05
923 -1.251945919883108e-07 1.3899459422419767e-07 -1.1034825897661803e-07 -4.701191680049618e-05 0.00010861439726028728 3.8019766077386014e-06
558 -1.6429918130385245e-07 1.0313774087285749e-07 8.486519929824933e-08 2.233463500405387e-05 -8.148251835448531e-05 -0.00010130028012096934
1545 -4.184902990824258e-07 6.75496175830625e-08 -5.279167861723608e-08 -0.00010060192071190465 0.000198500822094724 -0.0002760575844792122
1068 -2.670292695694402e-07 9.013254758106671e-08 3.126833696673747e-07 0.00018128882384007677 -5.629678801536449e-05 0.00010315059310872034
1509 -1.2995739601024217e-07 5.316972437292966e-07 2.5364910228458366e-07 -0.00035533273997404176 8.94795972163889e-05 -0.0001194312749627357
230 -4.2074883664894794e-08 1.4269697363137206e-07 4.690940577875006e-07 -0.0002778955351988686 -0.0004250026569719044 -0.0012108012874152763
143 6.073370211286998e-07 -1.3773245056645888e-06 2.8491764411197417e-07 9.60660752214641e-05 0.0012471150427161772 0.000332326245521162
360 1.1641978941629594e-06 2.1869988534403678e-07 6.571470390194122e-07 -5.236218213468757e-05 0.0004572680957574564 -0.0012888214559335074
633 4.856873733599723e-07 -7.170253086326643e-07 1.2306222180969817e-06 -0.0002128163160716097 0.0007793453873979384 0.0004652835401252521
452 -8.94711170981419e-07 -1.3490985472342777e-06 3.2737315129078053e-07 0.00016181000524956546 -0.00017874095659399614 0.00017088315072828032
1323 5.728837605680758e-07 -9.256521139818224e-07 9.062516194717429e-07 -0.00030907859568495564 0.00043031239906576115 0.00034883696827267714
159 -1.014041045570488e-06 -8.818603607083973e-07 8.522031590202684e-07 -0.000566401829524135 -0.0010089237690054306 -0.0014235924541620472
884 6.857875792202135e-07 1.0875634883843381e-06 1.0089859833704893e-06 -0.0008545859095832987 0.000515649526336757 -0.00010502564183502303
128 9.915624263477185e-07 2.0548198630851498e-07 1.599367305030361e-07 6.74080162927454e-05 0.00012359762515987455 0.000540765731987792
1167 -7.430712850847702e-07 -6.275135406624539e-07 5.856764742175267e-09 0.00021930445365202106 -0.0003599263075328046 -0.000560368908326431
979 2.0121734013079773e-07 -1.560300678598955e-06 1.1574313084155749e-06 -5.268643940121361e-05 -0.00014386233160287783 -7.454030464624244e-05
1228 -3.7309447100582714e-07 -1.5016376285982501e-06 2.960534335241989e-07 -0.00013241328423938944 -0.00031419735543271354 7.676250869040284e-05
1421 -1.0330246249488606e-08 -3.220985075961867e-07 -3.8162515553798626e-07 -0.000620098484573324 0.00016739275271233895 0.0001543290111759988
135 1.9799094179978345e-06 -2.632656197143325e-07 1.0844879717431166e-07 0.0002858368101404075 0.0001464195535751719 -0.0008053702751241915
229 -1.9675388169907893e-07 -6.774117997196481e-07 -1.218554322400387e-07 -0.0004544905015497017 -0.00050281586561009 0.00016991248945436287
13 -6.81191649464343e-07 -1.1571893548311916e-06 1.9529024717501984e-07 0.00016498318494110006 0.00011758389743027957 1.297381835454273e-05
1354 -7.851444360143254e-07 -8.475236065423965e-07 -9.099711288345526e-08 6.394961753717342e-05 -2.839555410808387e-05 -0.00021083727186035195
771 3.9225357582384477e-07 -7.471035872614407e-07 -5.358903166634252e-07 -0.00021528980792899388 0.0005909437496035767 0.00037739807881403286
482 3.799161483316278e-07 -9.30701318955141e-07 -1.5587733566782678e-08 0.0008720593421659633 -0.00023389801074485313 -0.00035090961171221137
577 -2.0203818427658924e-07 3.874258441093253e-07 -5.552476481812907e-07 -0.0010268810578410836 -0.0006310908273775873 -6.167541110996761e-05
683 1.5232194804069596e-07 -3.112771430106178e-08 -4.974821460831875e-07 -0.00046640495744055996 -6.066762711325194e-05 -0.0003202221153970925
272 4.303454470467865e-07 7.781332461012103e-07 -6.027161208071863e-08 0.00010135511304886914 0.0004210031793212244 0.0006283375174647188
1047 1.011619632990119e-08 -1.121307881207028e-06 -7.247612465175204e-08 0.00038496583538385413 -9.86928280431903e-05 -0.0006041703622260054
1494 5.048714328420438e-07 -1.5157755398050994e-06 5.095864842072556e-07 0.000789152939458181 0.00037072679862822615 -0.0007526280357172616
680 9.728957130203452e-08 7.935401417417225e-07 -1.6099661325684044e-06 0.0009963909262805776 -0.0006427689701436295 -0.0008454754944422921
380 9.865783379787859e-08 2.4618201519718954e-07 -6.325358335976581e-07 -0.0005963433777047871 -0.00026058119371749427 7.679468388502935e-05
297 -1.727717499434222e-07 5.337076917104974e-07 -4.597074663182371e-07 -7.657085631425614e-06 -0.0001496382467398401 -0.0002169156991784148
1790 -1.347433647502671e-06 -5.530257772870894e-07 6.544869696451427e-07 0.0006015691674858679 -0.0009777719710948652 6.5051032079999496e-06
829 -1.0896119063109808e-06 9.585410829866153e-07 -8.140014136239727e-08 -7.883272131739857e-06 0.0004571493970564177 2.1909885146557948e-05
1364 -5.003485579385283e-07 -1.47039584810134e-06 4.782411897621684e-07 -0.00014188952605444753 -0.0006361025956380965 -1.2969392580857512e-05
786 -9.913125678638907e-07 5.418219722746633e-07 -8.280007118143589e-07 -0.00025899369119017086 0.00026847937301937484 0.0001383798617667574
718 -1.144310211632567e-07 -1.481915656574875e-06 -1.1355163265588857e-07 0.00011883278462698158 -0.0002675209307508012 -0.0009349190010054844
620 -4.904391960720495e-07 -9.433365462241515e-07 -2.2163277811206473e-07 0.0002465864391986229 0.0005981155596030478 0.0014093608461526754
1031 -7.440586433834161e-07 -3.11861396766352e-08 -2.1278278337273856e-06 -0.0006053650897878371 -0.00040212895424528047 0.00021024092397677003
801 -1.0872970317466659e-07 5.663039563949436e-07 -4.588243616575794e-07 9.047826007263489e-05 -0.00017648569133114724 0.00021768688376718845
148 -1.42574348651675e-06 6.139646895293802e-07 8.787120761195811e-07 0.00047089207378316013 0.00014213549597030367 0.0007781698915295308
417 -1.3820630063135702e-06 1.5051337412734499e-06 -1.0491667922081544e-07 0.00040128392761377377 0.00017901991864915047 0.0008014639244487312
166 -1.197484388596117e-06 1.3909768353654932e-08 -3.1577045835343037e-07 0.0004008471662509852 0.00023865314700288932 -0.0003065872578735756
392 -9.657396495341585e-07 -5.136456504404173e-07 2.2654965914832974e-07 -0.0003572250793113021 -5.567634038658695e-05 -0.0007246560337371735
214 -1.264796254596682e-06 -1.7734617056543771e-06 -2.0104762909295773e-07 0.0009151843128674265 -0.0007618862090787953 0.0007173452399517207
421 -1.5267704666393915e-06 1.3160762885754145e-07 -1.1283573296474908e-06 -0.0003187578533315498 -0.0002491881312698884 0.0004945586253831009
136 -1.6976552179932157e-06 8.754089212745918e-07 1.8593785131046423e-07 -0.0004486443060301824 -0.0006618759668539928 -0.00047727095111319175
174 -2.323030486417519e-06 4.206451159494299e-06 -3.6948338284173146e-07 -0.0015207984803202474 0.00018876437658433832 0.0017390517735888314
228 -2.576395800581502e-06 4.6498065995023226e-06 1.5342727770147478e-08 -0.0006885865292820937 -0.00019463070718665754 -0.00034242424504088144
140 -9.896173144528261e-08 2.3059020047542063e-07 -2.938982962490942e-07 0.0006098004234109933 0.000287320882612619 7.54483358685997e-05
48 -6.260170676512077e-07 -2.790192673282896e-08 -6.769808146735741e-08 -0.00032386347493650367 4.877958945874611e-05 1.2738208618718253e-05
434 2.3190670857876458e-07 -1.5734977564655164e-06 3.928009881673657e-07 -0.00010894377171837802 -0.00038565045344576214 -8.580807566128091e-05
147 -2.3784033439141073e-07 -6.3580529077975e-07 -3.5160421533461723e-07 0.00035658636326644805 0.0003504249469485012 -2.1817738764167907e-05
616 -2.944200302714449e-06 -2.153057490104148e-06 -1.1941831610320648e-06 -0.0010417685114221835 0.0010039972903894269 -0.00015106878613111577
1014 -2.04855024487361e-06 -6.345523841774026e-07 -1.0569005049035107e-06 -0.0010819168268537762 0.000973635700843787 -7.943127837240868e-05
685 -2.023885853575951e-06 1.1891472395480842e-06 2.4967344277647524e-07 -0.00028692406576954056 -0.00043630696060478015 0.0005811229718507161
676 -2.1882695828931982e-06 1.9542182206255477e-06 3.076572806270216e-07 -0.0002052599908009996 0.000182865252940712 -0.00026961532069308327
341 -2.286448349095421e-06 7.154443057444707e-07 1.1332560628067039e-06 0.0011128574336979106 -0.00091409415870076 -0.0001139563283370261
11 -2.0656179781876665e-06 1.7819612364579806e-06 8.456004193047464e-07 -0.0006162173370236379 8.177113910571123e-05 0.0003758848425074897
712 -2.7291571008800828e-06 2.7810891575848435e-06 -1.0083578269452925e-07 -0.00018775055938116537 6.382507706630368e-05 0.0006701639850748526
51 -3.2139914735770682e-06 2.918663943419491e-06 1.12052948579261e-06 0.0005137282407158092 -0.0006735922690922548 6.293583533444882e-05
139 -2.3005768656852984e-07 8.890627923225634e-08 3.1623923240828105e-07 -0.00028049053304903654 -9.478429816509828e-05 0.00020334545949987065
282 -2.8854754015993586e-07 2.1046963013048382e-07 -2.962078298505725e-07 9.038739883939109e-05 0.0001740270590502127 -0.0004549778011309281
1118 -6.118403357633303e-09 3.8187167596453575e-07 -6.189566058431243e-07 -0.0006172441444341253 -6.914663825353815e-05 -0.000197019219426614
367 -4.431045976689917e-07 -9.449173955624885e-07 1.329629835114486e-07 -0.0005383862192977272 -9.259119267887867e-05 -5.510617984377863e-06
653 -5.159905180650732e-07 -5.725216427822898e-07 3.892899573069679e-07 -0.0005219118602000846 -0.00010108844669608021 0.0003480228231594881
326 -1.3618988461233874e-06 -8.708494077764317e-07 -1.3242087188408738e-06 0.0007574536828701777 -0.00014506679956757552 -0.00016868090002596786
264 -1.6714050699418507e-06 1.675316175450126e-07 -1.6831541287160876e-07 -0.0005072403069690909 0.0001626793988899262 0.000822875022148047
412 -2.6208948744498274e-06 8.444549406360684e-07 1.6348895025481953e-07 -0.00016842335375360357 -0.0004866317248023337 0.00020684856981651158
20 -2.1275889715391476e-06 2.138791655322708e-06 -3.2089961077808884e-07 -6.891388040715358e-05 -0.00010756382225487085 0.0003760037760989054
199 -2.4349305229831466e-06 1.967515150216701e-06 7.61173951741448e-07 0.00021895822590927867 -0.0008813073624515872 0.0003897257284556785
133 -2.4927413394470623e-06 1.17397789149816e-06 -6.080760706160096e-07 0.0003292373487240598 0.0011454981811675148 -0.0006835116301805134
81 -2.886889077391364e-06 2.7279997410374844e-06 -9.150854725152268e-07 -2.476872078203332e-05 3.2794986253364185e-05 -0.0006633111528974626
797 -2.1091185546017144e-06 2.4580603467799947e-06 -1.9481681371241265e-07 0.0010072050112392564 0.001465893510965074 -0.0002827193914834194
732 -2.550061042007282e-06 3.3471642287828695e-06 -1.0866722801652218e-06 -0.00023321673863690133 -0.0010900701160837067 -6.600140683000837e-05
1483 -1.0394766348721736e-07 1.3325476621817995e-07 3.0718937844439897e-07 -6.644125050374413e-05 -0.0003649666195368745 -1.5241898594121171e-05
716 -1.2350568835301543e-06 -4.1875374349398923e-07 4.863005613196516e-08 0.00017374197105374196 -0.00011712054996952857 6.551164198115253e-05
747 -1.4984260361302183e-06 1.4373096369540202e-06 -4.6904329391512736e-07 0.00039576197715914836 -0.0005845337790444492 0.000838439285852222
775 -1.1881202016818556e-06 -1.3739410683798164e-07 -1.8106428952756473e-07 -0.00022058889347282 -4.5662335752355874e-05 -4.881195044141664e-06
1612 -2.174935305377372e-06 7.334929768031449e-07 8.257786925662672e-07 8.273601221816539e-05 -5.4862461708958125e-05 -0.00042645559963521974
276 -2.7721191770888746e-06 1.885038833775302e-06 4.6047874271433634e-07 -1.7029870055970764e-05 -0.00025870336073613106 5.783643965506943e-05
601 -3.0438173357367584e-06 9.766643308186352e-07 2.0293906168724357e-07 0.0001802927450922728 -0.0005682031150277588 0.0008710305679580735
188 -2.930609596065957e-06 1.8384426332782988e-06 -5.648964975608858e-07 0.0006402299841085941 -0.0003602749052838593 0.0008393631659109772
217 -4.253757906134881e-06 2.9114529753827956e-06 -7.594435979095307e-07 0.0002892664280164311 -0.0003522220944212758 0.0012483816767804707
1992 -1.7157672824304093e-06 2.6726822648591636e-06 3.2247916506172237e-08 0.00010086333237731752 0.0005198985039230422 -0.0005749570969597066
496 -1.3713410859983083e-06 5.417654336563606e-06 7.257316678405226e-07 -0.00019120307536632855 0.0009743182986375761 0.0001437099271679114
1859 -9.164623488750467e-07 -3.7033047579460794e-07 8.890307646669286e-07 0.0001979100552772204 0.00034094159332624565 -0.0004031948290924652
890 -1.3490562224134708e-06 -3.961265234335032e-07 -2.1620552053482916e-08 -0.0004303600768081275 -0.00032173672124765837 4.924470280865287e-05
867 -8.128794191685358e-07 3.441824325697579e-06 -8.058587918685294e-07 0.0027765386729881715 -0.000407825118609212 0.0027555132846058777
539 -2.011855002736576e-06 2.3607058150268392e-07 -2.2807966128892617e-07 6.57927321233402e-05 -0.000249926891663067 0.00035463172038606634
158 -2.2029004075000734e-06 5.3979962361396975e-08 9.7507986788813e-08 0.00040602125258589047 -0.00039470621061524474 -0.0003439018367590828
274 -3.404062893613705e-06 1.4451398707130344e-07 1.0887786329967687e-06 -0.0007173953383349606 -0.00015725100624821193 0.00042225422534407624
593 -2.3486217035337272e-06 1.722474236310176e-06 5.964155230699487e-07 -0.0002597164630143759 8.937522738306804e-05 -0.00030765354191615346
1096 -2.5401516438415334e-06 1.206883125293927e-06 -3.652507310479108e-07 -0.00033123114319830204 0.00031087474294910154 -0.000899980993249632
776 -3.691026244960859e-06 2.441352714005663e-06 -1.6308683852095211e-06 -0.00022100769645339865 -0.0006628532954613694 -0.0004667422336086033
442 -3.1734984620474376e-06 2.1311983568652382e-06 3.885448921906996e-08 0.000613083598734745 -0.00021776974431128845 0.0004352578376014085
353 -7.770514331992706e-07 2.64125483244296e-06 7.10409381228741e-07 0.00021695472650068055 0.00028019896891404584 0.0005526189312229744
268 -2.564858571680329e-06 4.978364130677215e-06 6.10490165092908e-08 -0.0009427121279558384 0.00013239540723891376 0.000323033379153139
2165 9.402640421739932e-08 3.2034528121126654e-06 1.6973726785392673e-07 0.0006741120941720864 9.882529021218096e-05 -0.00017227467922885254
691 -1.2840173164354836e-06 1.9321429043547483e-06 -8.771985396276085e-07 -0.0015416914159185275 -0.0004945668171685856 -0.0017774666779521242
720 2.5959340410491407e-05 4.942485237682043e-06 1.1603293829333664e-05 -0.011069178520032025 -0.0005985696026899724 0.01874069879303421
518 -1.95122750254071e-06 -6.885850507331029e-08 5.475997975429986e-07 -0.0005007575303987076 0.0009551511169184704 1.6839150537915547e-05
181 -2.5056651197399525e-06 1.304415401777277e-06 1.7721927924930467e-07 -0.0006573197439315748 -0.0003655099881479025 9.052077872835694e-05
731 -2.4278979817249533e-06 1.0570427112337875e-06 1.4215365054994301e-06 -0.0009710539313859757 0.001346904296078017 0.0006903861351195715
134 -4.134388879121537e-06 2.5993301678068655e-06 -9.419329237228795e-08 0.0005303045213773189 0.0005741335458349853 -0.0009053077505186547
584 -4.5389679297309565e-06 2.035027828039558e-06 -5.216421667856949e-07 0.00025627812366474693 -0.0008220717226785969 4.830961797339139e-05
172 -3.913418015254444e-06 1.9069251704849407e-06 -7.722865123140618e-07 0.00011047093401360058 -0.0002721253810202547 0.0005423682430419519
908 -2.9778945427045544e-08 2.72999593840193e-06 8.431077205512539e-07 -0.00033329017117362684 2.6317111876429828e-05 0.0004623230229856159
930 1.8262938658979138e-07 -5.178995475748686e-07 -6.708071507881218e-08 8.640055081613179e-05 0.00013176620602301783 0.00015781490225143228
1244 6.127808594721313e-07 -3.2736203325541284e-07 -4.735643970842493e-07 0.00012521459377202434 0.0007787889733966318 -0.0006685177692581755
785 -4.49842783506995e-07 -7.882147813245815e-07 5.219920639704453e-07 -0.0004493354153594205 2.1864749579327732e-05 -0.00025487390747297456
1310 -5.294721110151039e-07 7.790784551697074e-07 9.877413765405259e-07 0.00032001726550558586 0.0005685597930564678 -0.0014424481017793372
833 -1.935530974277811e-06 6.051949027771687e-08 -1.0148515328562065e-07 -0.00015510907800394828 0.00102766891928985 -0.00035876047604448173
606 -2.8460683338298767e-06 1.0931107333553325e-06 -7.21954861843575e-07 0.00038221836064964766 -0.0003121343239702009 0.00020077835773114465
309 -2.9253980263871426e-06 1.0479228009678e-06 3.742800006190876e-07 0.00038784622366845486 -0.00016403486277587114 -0.0003474155028658877
1063 -3.1235889683426327e-06 2.241360780454428e-06 -1.9642983093888566e-07 -0.0013057900306581785 0.0013417291039729223 0.0021708584381352576
793 -2.913740708121553e-06 2.494156790969979e-06 -3.6184786171454794e-07 -0.0007489525760229934 -0.00041786295798741424 -0.0004129763646141038
1669 -2.029426502223639e-06 2.2770338205131993e-06 -1.1509071404352431e-07 -0.000261072907338795 0.0006420352245041328 -0.0002181487890949051
473 -2.068520147597704e-06 2.1758323994660272e-06 8.968590740295213e-07 0.00040316683042097026 0.00034042974535291486 -2.34713825163979e-05
1534 -1.8363223153424491e-06 1.6971602867147486e-06 9.607197444317888e-07 0.000621972099975064 0.00020104424367567403 -0.000609221321108129
2088 -2.160825460434209e-06 1.1957726992954131e-06 -4.4426640079497786e-07 -1.9087729125711303e-05 -0.0007705608729066652 -0.0009670752180798751
243 -5.588244831623074e-08 -2.016448801315092e-07 7.230576594244072e-07 -0.00013542969243445023 0.00016211256234746401 -8.392562804782319e-05
1010 -1.2513485986989727e-06 -4.339853901380742e-07 -3.8110244980365203e-07 -2.2668604865381588e-05 0.00043256649689613763 0.0006709890877072386
38 -2.172872920903616e-06 -1.1504080735273282e-06 6.511043019520266e-07 0.0004508446986028656 -0.0003439659882025488 9.64775413925396e-05
1888 -2.8704294765173354e-06 -6.57727134260205e-08 -1.1423453973179021e-08 -0.00017131049500444684 0.0006271740150501269 9.858651110139346e-05
655 -2.572304869806199e-06 1.1995864350261612e-06 4.808087514313343e-07 -9.8825113825875e-05 -0.00016343256364596581 0.00038511617523831053
843 -2.9600477520847287e-06 9.935783044381265e-07 4.495779789973275e-07 -0.00026341717449476147 -0.0003786279185564074 0.0001167985208287813
826 -3.184649286134167e-06 6.874251942638004e-06 -1.2973672431152593e-06 -0.0027528572213059753 -0.0003812969423181102 -0.000990299341751483
1071 -2.9552288113673803e-06 1.912917511611451e-06 -9.701881509258246e-07 0.00024699454107816095 -0.00044656640040635095 0.0002572629772341691
649 -2.583477785819607e-06 1.6735334444632545e-06 -7.070575852422285e-08 -6.112289992769834e-05 -0.0005735476957202595 0.00027085626246938556
1082 -1.5516099151274416e-06 2.9623522659017095e-06 8.104542550007344e-07 -0.00036495467848250826 1.997629385626378e-06 -0.0005525293961579029
1303 -3.872064991909615e-06 3.381956601236825e-06 -6.557464634028165e-07 -0.00160462065594778 -0.0014681908593476025 0.0004537032786597695
480 -1.965261964841602e-06 1.2399685487976332e-06 3.388907018641398e-07 -0.0003513649640113796 -0.0003906202874156342 -0.00015138871964194347
114 -2.038389097088358e-06 1.2877605853818423e-06 1.051241129303214e-07 -0.0002461582931871814 -0.00035269176400166746 -4.673399861035244e-05
1246 -1.0328389970125796e-07 -4.808015027361407e-07 -3.273129230366534e-07 -4.056783892848242e-05 -2.2637646603066602e-05 -6.900016820568894e-06
329 1.8942183432414346e-07 -6.179690086015394e-07 -3.7603389563101165e-07 0.0006180388737688639 -0.0006479861238487566 0.000247018763567954
2178 2.1568737053873798e-07 -5.548146114676353e-07 -4.6674329019069124e-07 -0.0003770026535037002 0.00012634370318768983 -0.0005605312062714416
516 -1.6323161195824969e-06 -2.9460415002661777e-07 1.3606155565795054e-07 -0.00036405189595703686 -0.00040445559379059993 -0.0007802130911970289
1420 -2.64358373034252e-06 -2.242171394849184e-06 2.6939385298094875e-07 0.0003391981765672885 -0.0004407583182253053 0.0006405744658129651
672 -2.065652141664425e-06 5.484576400220036e-07 1.2819690610889373e-06 0.0005090880168119432 -0.000511189029755385 0.0005332253050058691
57 -2.882049157864964e-06 7.254228538205173e-07 5.412200489367565e-07 -0.00011216343617192193 0.00018526385309619844 7.402056323622232e-05
376 -2.631144486641825e-06 1.1285480043723548e-06 2.8668699430595797e-07 -0.0006188642865383093 0.0003863225303556555 -0.0003657776454378318
1349 -3.0942341674054932e-06 8.225341143670469e-07 9.962918960111708e-07 -0.00023792058871206561 0.0009471134980108074 -0.0002582125179040991
1327 -2.388011464969573e-06 4.31712961141502e-06 -3.291820577881577e-07 -0.0009550824824420118 0.0006867314277633668 0.0012779120969538414
92 -3.279009944214429e-06 9.915408832182267e-07 -5.119374366295993e-07 -0.00034407081126575355 -0.0007737837152939768 0.0003706207234072929
165 -7.338146283288397e-07 2.890162395480603e-06 4.1857477366388057e-07 -0.00035887752660143885 0.0003446257234158595 0.00033749110517534796
563 -1.0417189191713976e-06 1.8350636364032567e-06 5.930439322745425e-07 -0.00045574484420116736 -0.001122711647869807 0.00013299872626125952
1467 -9.33633059082245e-08 8.04614920391925e-07 -5.954666635357395e-07 0.0009105248656727827 0.0019806971214314864 -0.00035336458271844094
1867 5.4754818588850606e-08 -6.78907053366489e-07 -3.473820083663553e-07 -5.1363858476314615e-05 0.00016608545662905963 -0.0002598421320811579
1149 -8.278543926912478e-07 -8.055530812846364e-07 -2.433383324372133e-07 0.0006643369923136288 -0.0002306716285975069 -0.00022859054908664622
267 -7.513600769312532e-07 -3.939198563715416e-07 5.257960883564962e-07 0.00047041134739820255 -0.00031095034698386975 0.0002737304648918721
522 -1.5428950364348175e-06 -7.366684646661793e-07 1.1375838859740968e-06 -6.455000116090814e-05 -0.00015299826791574238 6.710896987874342e-05
1314 -1.2755521319565035e-06 -5.146699006001855e-07 1.5747059557410366e-06 0.00023093916466600663 -6.693225582135408e-05 -0.00031632824342010644
768 -2.8177905987988956e-06 1.1676466346926172e-06 9.599719057897646e-07 -6.120501622515793e-05 -0.00010039882707807546 -0.00020615930095248342
405 -3.0366395894023074e-06 3.2744774500605243e-07 3.9268316642508893e-07 0.0003522212174195422 -0.0002279427641885715 0.0008095474263946408
1255 -2.0979499252903654e-06 6.942065095858871e-07 6.652818208086395e-07 -0.0006970409392388827 0.00039541383763688385 0.0008096116958135899
707 -2.0892893273924625e-06 1.733383782895398e-06 7.29462126029665e-08 -0.0005053498043447295 -0.0003494931390228314 -4.5367435136940526e-05
145 -3.472078612772387e-06 2.105215921607278e-06 6.238241806252246e-07 -0.00045316722721524123 0.00048747352131211597 2.6458567031921298e-05
1435 -2.2883362349755335e-06 8.585285137746332e-07 5.949598081146962e-07 -0.00018725164337580488 0.00027061158250293925 -0.0007536601868140054
1115 -2.3310667024822384e-06 3.1827736894498383e-07 5.889090293019931e-07 -0.000757144881609793 -0.00023831668178883402 0.00022012864149705534
204 -2.7555406203546892e-06 2.325690936774266e-06 3.8813450832359413e-07 -0.0005378507119853982 0.0006381457820137903 7.928008012417041e-05
740 3.562171744688807e-07 6.079696861178394e-07 -6.387016871035797e-07 0.00013029991269537266 -0.00012056441272459759 -0.00016827281713964085
458 6.135162447039651e-07 4.7484116532106516e-07 6.126347028452353e-07 0.0005849629678370723 -0.00040472768386924434 -0.00027072629025439707
1764 -2.475798669836257e-07 -3.287568906859458e-07 -5.058072304724846e-08 0.00015043250202260132 -0.00013518028303905605 -0.00023614665378769693
1370 -7.082784614169042e-07 -4.2618220989373166e-07 5.751764620779257e-07 -5.707470585369433e-05 -9.08639825673504e-05 0.0002833255614979106
813 -3.5312135827527547e-07 -8.252399431034195e-07 3.5238601465085386e-07 4.267122273332599e-05 0.0002718388800542351 -0.00042704689028831355
56 -1.7250706438098966e-06 -7.42471270402539e-08 6.105941271901191e-07 -0.0005369630422472551 9.714160959656532e-05 -0.0001912547627360086
355 -1.396507694723885e-06 -6.731756169065631e-07 2.3091008086815875e-06 -0.00024052953305937224 -0.00039296345941071176 0.00021854658299300426
423 -1.2853360884414302e-06 4.5073634280632557e-08 2.2320776890953603e-06 0.0008390061537413785 0.0005307637964532203 -0.00015119420395746472
782 -2.337059360287305e-06 -2.7531311992703966e-08 1.0850794446809812e-06 8.816165428884943e-05 -3.212755487361406e-05 -0.0004502378611301397
1055 -2.946397282292423e-06 1.8213963453475398e-06 3.076861870707308e-07 -0.00035632626475879753 0.000220078536191248 -0.00011989202814374413
74 -2.9360324995825865e-06 1.52344392238033e-06 4.3165596711198297e-07 -0.000576655661720478 -5.787057743074305e-05 -0.00031699461588903017
944 -2.589078315784461e-06 9.706406224990719e-07 2.9610732562351017e-07 2.7305287452811588e-05 -7.376479859427783e-05 0.00016187182538535784
644 -3.0735550033557047e-06 4.0053945263008884e-07 -1.179234465024075e-07 0.0001024545491711956 -0.00027409398002473524 -0.00017903843913774168
31 -3.4260993654883596e-06 1.4976323736987303e-06 -6.507765171899263e-07 -0.000581917811372174 -0.0008161043293666015 6.567764209883031e-05
854 -9.82370694270073e-07 1.9047383331387501e-06 -6.760679311534888e-07 -0.0004160634137547619 0.0008578800489460013 0.0005073650634125496
1142 1.1570127431936451e-07 8.543215636730434e-07 -7.14511566470338e-07 0.0010423449636397923 -0.0009827481556138162 -0.0010790039768394496
117 -1.4212838442803092e-07 4.7268314962559266e-07 2.749293002952199e-07 -0.00032916690319412175 -0.000658295714615957 0.00020932642862274767
315 2.089901558269536e-08 -2.62222272860212e-07 5.202824703490813e-07 -0.0008402974860590888 0.0004417134280412627 -0.00013202622026640338
887 5.4591884585037934e-08 -3.1156157795911554e-07 -3.691537666483818e-07 -0.000284942339010343 -1.9559894573439764e-06 -3.5578454887786026e-05
1456 2.1680492582256212e-07 -3.733509528403374e-07 -6.340726962838544e-08 -0.0001796064418624325 -0.00013995906507802892 6.037569995915415e-05
347 -1.004002980738612e-06 -3.545488630216097e-07 9.942119827462245e-08 -0.00017783834093250322 -5.6664325997150076e-05 -0.00027295892778432843
478 -1.2685397798945523e-06 -5.468436084239629e-07 4.230995042520777e-07 0.00047272889154971064 -0.00023648949971820623 0.00020153659430824697
987 -1.7318292958549467e-06 -7.388559656835081e-07 1.112541613924974e-06 9.077271213262527e-05 -0.0001352748806568044 -3.09241608921413e-05
364 -1.887423491217181e-06 -6.806678620972746e-07 1.4206269357082197e-06 -0.001261223484801887 8.793650466022583e-05 0.0005375435872564411
120 -1.7012684933882198e-06 8.42215874779785e-07 9.29612151552702e-07 -0.0003479952996615895 0.00048142543534769686 0.0005856236014778477
557 -3.147305172666493e-06 4.024778602240331e-09 1.0775750265900534e-06 -0.0001045152579885478 -0.00013146003454615748 0.000824752831958899
724 -2.470304093028896e-06 2.0462523470019675e-06 1.2524507040665884e-06 -0.00023717412199532637 0.00023342849308246057 -4.574560707060374e-05
1554 -2.8511263211810137e-06 1.7681379269902522e-06 6.118229304651598e-07 0.00011321668425742575 -0.00010439695508186717 0.00012708375815735732
185 -2.9708937568998607e-06 1.1428852250070704e-06 1.4422256789314846e-07 -0.0005516422321758372 0.00020375470227953257 -0.0002111556805423198
488 -1.6801578235666865e-06 8.444724993785659e-07 -4.1538534705115134e-07 0.0002723253060554513 -0.00018965338930098475 9.03248345166374e-05
1536 -2.0528003230367854e-06 1.4318926217885716e-06 1.698549691251499e-07 5.296435186260117e-06 -3.761046990935936e-05 9.177150130670051e-05
551 -1.760056411753194e-06 6.413298335405168e-07 -4.93604738620589e-07 -0.00019863816797496725 -0.00022915177505927135 -0.00013209688652337725
1121 1.3933305177927474e-08 4.532957005382345e-07 -5.504712088805782e-08 0.0011066296737877708 -0.000748300565032516 0.0005759651861387304
404 -1.009789368523272e-07 -1.201699322307813e-07 -3.1919501362731606e-07 -0.00019355748875566963 -0.0003713037166659884 -0.0007180468574183967
1272 -5.35829640613695e-07 -6.225645825632982e-07 6.985045138332391e-07 -0.00024043627263813214 -0.00019443726379111823 -0.0002735988101909973
702 -2.1207751747633326e-06 2.349456227143314e-08 -1.409132741195433e-07 -0.0001628187123447749 0.00030748621366049906 0.0002127466992378462
1204 -2.425529548295841e-06 1.643941251346577e-07 4.6384917720668413e-07 -0.0009440511531681787 0.0008347855790687838 -0.001586872518280811
1239 -2.596656783812392e-06 1.1515087557294495e-06 6.800199961586642e-07 0.0002191656771183748 -0.0009901029404101535 -0.001126299688847543
453 -2.215864438860163e-06 1.266027252404022e-06 6.119281205561656e-07 -0.00010355601896354564 4.5867935301504905e-06 0.0004842070316631243
878 -2.243322352422739e-06 1.2502371388904971e-06 3.959990203826137e-07 -0.00018502069793084152 3.35495666496104e-05 -0.00023815650328570494
611 -2.1587407347022995e-06 1.1485720558900104e-06 -1.6514644945326096e-07 -0.0005460423869777183 -0.00017359658371163207 0.0002979301366037064
246 -1.8442550772797789e-06 7.787764920429711e-07 6.376321719584858e-08 0.00018458012189308818 -0.00037848900763419517 0.00018244612605385535
626 -2.622845989385966e-06 6.791043821729292e-07 3.490707646162376e-07 -1.6940631226912632e-05 -0.0003248390856145866 -0.0008102566959732419
929 -1.4688189439508671e-06 6.826958099689691e-07 -3.2505506531999647e-07 -0.00010912460862647183 0.0005078856963114899 0.0002387270579888093
154 8.590226391062546e-07 1.2774925060891296e-06 7.667648993724172e-08 -0.0006820343688885709 0.00029614527399160235 0.0007920723993177994
379 1.7489341030121924e-07 3.698210252774173e-07 1.3639601312511105e-08 -0.001214093052699634 0.000603005807761415 -0.000294545615970892
490 -6.809166514130581e-08 -1.4856237109113206e-07 -5.572680634580668e-07 -7.666055093882016e-05 -9.464762378812447e-05 -5.887052410010603e-05
772 -2.5537328888068617e-08 -6.164820347818012e-07 -3.7581609723848643e-07 -3.267648668498701e-05 0.0003119868156619761 0.0003171936357057822
696 -7.875635533699671e-08 -4.792868151856952e-07 -2.994281019076376e-07 -0.00015031457145487777 -0.00036901263239323787 5.278557749204996e-05
80 -7.782744608429091e-07 4.831812685839481e-08 -4.0594432124478236e-07 0.00012847543033962615 8.24445369188484e-05 3.6466995896940015e-05
84 -1.0492858210394827e-06 -9.080991458347837e-07 -8.785029085553478e-07 -0.00021897643134818076 5.2785515492716395e-05 -0.0004541797378360803
23 -1.193022642250018e-06 -2.130966235702456e-06 -6.432924250514219e-07 0.00014235225580686272 -0.00024444582595948677 -0.0005895002674738858
505 -4.2052348059141485e-07 3.214937433300605e-07 2.2407706496836123e-07 0.00019560326027292068 0.0004163514896717863 4.352820978861691e-05
688 -2.06512270100626e-06 7.769152906886439e-07 4.3734208357435113e-07 0.0005056644829584171 0.00022975173177629368 -0.00044560177526793915
1201 -1.8949754288666042e-06 8.097232177159357e-07 -4.373909035320238e-07 -0.00027536601898778653 9.290961509376699e-05 -0.0005615551285198852
1200 -1.7615450466828957e-06 6.012767276457158e-07 -1.0393111914425941e-07 -0.00010312685567458705 -0.0002466961177513424 0.0005881593451249326
831 -9.04480999854871e-07 5.514327535112e-07 1.1809996713916134e-07 0.00047231199681221377 -0.00047765005617483495 -0.00033266903875703335
19 -1.081299976070559e-06 5.909741496840528e-07 -3.0049776260238226e-07 0.00014536617131112497 -0.0004840621135252341 -9.882544505867526e-05
1190 -5.740673652760444e-07 -6.654819271680225e-07 -7.300945603535884e-07 0.00035588340912986186 0.00021116166437480335 1.823411849489568e-05
1594 -3.00543362233972e-07 -5.573244962099085e-07 -8.518835759629227e-07 -0.000234196591720708 -0.00023383654304422977 9.270538360325693e-05
607 -7.748119729539748e-08 -4.527232261171571e-08 -2.966423315258427e-07 6.178846260531729e-05 1.9961435853755286e-05 -5.1245696309011895e-05
916 -6.424387962541322e-08 -1.2351292622401273e-08 -5.608034011140448e-07 9.132331694420254e-05 -0.0001045807626987152 1.369630155086645e-06
586 1.908071072594244e-07 -7.191341973520928e-07 -3.445361987775481e-07 0.0001252397140494775 -0.0004107462650041936 8.27396097065804e-05
75 -2.3505321446118119e-07 -1.4875161383457585e-07 -5.914180832956823e-07 0.00018686593422473496 0.00036264625246400033 -9.515054431436433e-05
132 -1.0065496622613187e-06 3.024628953343787e-07 5.250954863228293e-07 -0.0007758965739866339 -0.0003099921465215762 -0.0003726589258909659
580 -6.878390585783771e-08 -2.3136161386639066e-06 2.779581627114541e-07 0.0011585432961511864 8.796881824306126e-05 0.001484748386397912
1119 -6.025199099986097e-07 -2.341060450008038e-07 3.263121751322947e-07 0.00020424816375818846 0.0003295722524378511 0.0003192204628453766
1234 -5.936874553468909e-07 2.1468583328559238e-07 2.0704874697340192e-07 -0.00023923117134833088 -0.00017474872861361455 -0.0001578281489825781
765 -3.2441446148623097e-07 4.9402607294122324e-08 1.3453730055765524e-07 0.0002329965129183259 -0.0001027215707005926 -0.0004008666014294936
1515 1.802046185432602e-07 1.010841276491905e-06 -2.415649039422019e-08 -0.00042558011570482365 -0.00016792823535728105 0.0006313873944333262
717 2.77972215859014e-07 2.008100186696663e-07 3.787000733286053e-07 0.0004629690558697851 0.00019671477442614242 -0.0009507254874985013
1036 -4.5631685974139437e-07 3.3762613305040946e-07 3.5360718952123784e-07 -2.165264154310686e-05 8.702751087582327e-05 0.00018948620592312696
1664 -3.476699271358328e-07 4.447058041759696e-08 4.542796672620511e-07 0.0004833780807733003 0.00025151581452224805 0.0003187379442620653
931 -9.640259310801364e-08 1.4892309679519074e-07 -2.988493124003694e-08 0.00012350844694514445 6.36527922885876e-05 -5.3583318052496576e-05
1511 1.7984897390402944e-08 -5.803651952487835e-07 3.0289772567324587e-07 8.041019944177193e-05 -1.660542908340406e-05 -0.00024065600020844517
1365 1.3277319662300688e-07 2.535812754707451e-07 4.11209958072774e-07 5.4850713747168436e-05 0.00020834252588918035 0.0006480740058743927
49 7.540332527151057e-07 -8.348141555241775e-07 9.671758216200371e-07 -0.0004335249004295242 0.000767081921133639 -0.00028920424185153684
1547 -2.2591939400229601e-07 -9.363387346550603e-07 -7.25999816293271e-08 -0.000240304062897996 0.000329090775813895 0.00045381079276049323
648 2.9800975800052105e-08 1.04527976989821e-06 -1.02049108291643e-06 -0.0006504651327458512 0.0005064980293914718 -0.00011886001858137638
554 -1.066201336730242e-07 -1.1841421118017791e-06 -2.5025982152365277e-07 -0.0002327886118311172 -0.0010564877769420865 -0.0011407292628586895
594 -4.160444836863795e-07 6.169407033324168e-07 -1.748404355186931e-07 0.00036283138594423586 -0.00018493185450424034 -0.0003408925080173613
425 -8.553991760469449e-07 -2.571579027353867e-07 7.881725714267e-07 4.6249853608193445e-05 0.00045242145075267997 0.0004270362929664098
466 -7.116987049676865e-08 5.745088102770704e-07 -4.0782057054579887e-07 0.00019891731619989784 0.0004190069167062703 0.0003372968461773462
1281 -4.109527236115065e-07 -2.2781029373632604e-07 -7.409877517070757e-07 -6.522956683959277e-05 -0.00033521077531740594 -0.0008372628905435114
639 4.7548303780484504e-08 -1.054254408704843e-06 -1.6781811127882859e-06 0.001419581407860733 0.0007745378763980862 -0.0002081081674271472
88 -4.18118484760751e-07 -3.139582733436189e-07 -6.06289301669019e-07 -0.00044750424353960964 0.0004151110230147524 -7.210131816857346e-05
1058 -3.609632116358245e-07 4.0177698884162175e-07 -5.725062939250037e-07 0.00010486163868562751 -8.735061225135446e-05 -0.0004984629816392314
721 -1.5650740813974582e-10 -3.400533496781674e-07 -3.923785870462386e-07 0.0006054969522915557 0.0003322960407532676 0.0005989285652247032
391 -1.4215701237086617e-06 -1.6340732304667764e-06 -8.254892042532748e-07 -0.001001415916861348 0.0003960042784268553 -0.0009336225200450367
17 -1.2753820814773024e-06 -1.2542254549263275e-06 -1.114026615483312e-07 -0.0013239139689558762 0.0010720860311851318 0.00039952753319879463
561 -1.6069097104376434e-06 -9.580096751979256e-07 -1.6882417813605278e-06 0.0009754192684023077 -0.00017489699349714104 -0.0003572370994882399
678 -2.1359309946723605e-06 1.6388063368344886e-06 7.874819156092728e-07 -4.497022625918414e-06 0.00040453756203474536 0.00022417154907670124
810 9.848808690981217e-08 1.3176787806233088e-08 -7.441415709311521e-08 -0.000501801359947306 -7.912882949912038e-05 2.3957941676429204e-05
645 -5.687942006792934e-08 3.8313987695887e-07 -4.649425711892531e-07 0.00023212571396672075 0.00010986184593826289 0.00031956333518233564
1138 -8.705524911672336e-07 8.829995824903217e-08 1.3581334173221649e-07 0.0002947924901777164 -0.0005631686244784332 0.0002478129992122555
8 -7.54259426983834e-07 3.6788360575665695e-07 7.404455234675143e-07 -0.00022515984111241236 0.0002355145645715868 -0.00011494044206574032
1398 -1.3099843685058377e-06 8.168688598394332e-07 2.1739852274188986e-07 0.00033396347714002833 0.0004230073478037068 0.0006754568645663771
189 -1.922448149351656e-06 2.5608558245444276e-06 8.646943030879472e-07 -0.0022776339490198816 0.0009213576804143436 0.00016389905732062945
2006 -4.1085001697273894e-07 3.241244191145268e-07 -4.4728589832964556e-07 0.00015790682095486057 -0.0002046716465005642 0.00012068580962316955
462 -7.176660368591816e-07 -3.847593861250471e-07 -4.860860217510072e-07 -8.07534859902036e-05 -0.0002459981882848119 0.00019213290349687375
628 -5.134339498450328e-07 4.5202013846700687e-07 -5.2030981937181415e-08 2.900634511369496e-05 3.4566446503367436e-05 -0.00015141848243354754
1104 -3.8097764292653003e-06 -6.167139283217383e-07 -1.5120253216965094e-06 0.0008575550339077535 -0.0011831109828486597 0.0009816834747745232
161 -1.8926697935953393e-06 -1.1061408651897627e-06 -1.1030448524483595e-06 0.0011107340565753743 -0.0011483142360410588 -9.15350406558407e-05
546 -1.784026765856084e-06 1.7498489868173809e-06 -1.602227651749769e-07 0.0002874785045410759 0.0005101350011763622 -0.0005536740827321986
402 -8.555299034717264e-07 2.933804704893738e-07 1.4794666554651714e-07 3.2194052987490735e-05 9.276224865403988e-05 1.4894943714082423e-06
543 -7.914493794405366e-07 1.5590678194979207e-07 -2.0897917531127548e-07 -0.0002448262707987044 0.0002579753159437443 -0.00011179332029383543
690 -1.9757241791284624e-08 8.257704713971431e-07 -7.174675809322683e-07 0.0003607588662621846 0.00031668513309785536 0.000560092940635201
779 -5.403923791587078e-07 1.9279648197807638e-07 -1.2982488706558108e-06 -0.00041974784117854543 0.0009629240270128205 -0.0009836482326484911
1680 -1.0081304562197482e-06 6.648915329965744e-07 -2.227309902741488e-06 -0.0007975157042242261 -0.0008615569124271673 -0.00014978222224966878
235 -2.8628783871344273e-06 -2.5575199557405925e-07 -1.1435261872448664e-07 -0.0001248998910185194 0.0003461531018529744 -0.0016090723816337296
627 -2.6552017394777305e-06 -1.2958325688942511e-06 -3.7801608341445055e-07 -2.4440430488375446e-05 -5.200558166872774e-05 0.000979326912790096
549 -2.7335896167378695e-06 -1.4388636402912986e-06 2.644850679528132e-07 0.0015305289071479902 -0.0002714582175834837 -0.0004371266289336703
254 -1.4930926149257336e-06 1.8810282015421273e-06 6.524909736887811e-07 -0.00030081590591743483 0.0006661826347942811 0.0006532797438972678
12 -3.304885358727126e-06 2.4498011336713753e-06 2.588553180722478e-07 -0.0003578556854993093 -0.0009052042550842057 -0.0013507200750016532
1558 -6.068888154248105e-07 1.6726502176365603e-07 1.919897922074548e-07 0.00047486289859365087 0.0004561715792897444 0.00011603521490799725
666 -1.5018707381269636e-06 6.277484676490236e-07 1.9665075068860314e-07 -0.00017032445686803588 0.0006709247319204398 -0.0001228831210829073
118 -2.395732613017307e-06 -5.730980496972984e-07 1.2382576571093423e-06 -0.0017546613643140854 0.00036717843399788615 -0.0017222434783932517
129 -3.9725334372826754e-07 -7.22285837923885e-07 6.473238108584294e-07 0.0015988562584330031 0.0004804174779228854 -0.000441439825642902
233 -1.3949059478817177e-06 -2.687978802005109e-07 -9.825914407497912e-08 0.00043594054324484473 -0.000163734510351571 0.0007804088575213636
962 -3.1321155783217476e-06 -9.34354921964525e-07 7.809238315580401e-07 -2.1831983579926807e-05 8.070330530326332e-05 0.00025274305522647887
1292 -2.5970043214879394e-06 1.1547638983411494e-06 3.982201132139693e-07 -0.0006398935103042653 5.22138210025941e-05 0.00042288874502801254
292 -2.876272945472404e-06 2.384794650961285e-06 5.203277650055122e-07 0.00029471921021609874 -0.00011638374308360107 7.38146750736624e-05
1657 -1.5983404832941468e-06 2.679859491514034e-06 8.162046108956802e-08 0.00013778883458791098 0.000192256381921277 0.00047557335753287936
1556 -4.939627566245915e-06 2.3915853192912878e-06 -5.261985552245432e-07 -0.0007564135145018904 0.000581247869435896 0.00021814566758601597
1500 -3.3689910401605254e-06 2.5526333810195743e-06 -1.1642445553520753e-06 -0.0002836215233648559 0.0011907291713066578 0.000221756002819611
1434 -4.6509241773451665e-06 3.0372561082366514e-06 -1.2477299695777793e-06 -0.0009771417888657951 -0.000373205143633573 -0.0014302794262047679
1639 2.3200398188829555e-07 -9.845221871744811e-08 5.02211629200881e-07 -0.000333569537298813 -0.0001956948250674161 7.958414016564731e-05
69 -1.7458521120709204e-06 5.474679515143617e-07 7.074312579557878e-08 -2.732499935240623e-05 -0.0006972785502019957 -0.00014885110663486023
1351 -2.130366657461825e-06 1.267796380822735e-06 6.854235175420947e-07 0.000864130803915245 -0.00041093507339498743 0.0012415615292261967
1182 -2.340833424517002e-07 -4.1664014002147624e-07 1.6092186082647306e-06 0.002705253155961448 -0.0002867888801353236 0.0010615449704120769
1831 -2.7356975052122343e-06 -2.739066025271869e-07 8.547938878211952e-08 2.1616448487308605e-07 -0.0012413232630463504 0.0014941159837056322
338 -2.2992818473027453e-06 1.8245965800358526e-07 6.995076995842616e-08 -0.00028021493543305527 -0.000274873594233376 -0.0006758438194416326
990 -3.0674875926842266e-06 1.2824670210265872e-06 2.252215387580389e-07 0.00023381554495481953 -0.000205790042822696 -0.0008007004328128008
151 -1.4076095903220616e-06 1.2955930147652636e-06 9.813614284893651e-07 0.0006396880614362525 -0.0012154244220925472 -0.0011264960500643722
54 -4.6057925546839655e-06 2.23397668538593e-06 -6.664575377666184e-07 -0.0007167615729327614 0.00019483052038764764 -0.00031630185591996127
598 -3.2814550481789516e-06 1.8588254289353933e-06 -8.490773139365586e-07 0.0002456557445762842 -0.0013138756608667436 0.0004524191051833184
372 -2.843571124452564e-06 4.482993105344508e-06 7.174555692880361e-07 -0.0014048551776448088 -0.001016554271377635 -0.00018820583745355902
1114 -1.381158103119172e-06 -1.4780612708185354e-06 1.3040745655222023e-06 -0.001112541204197517 -0.0005648570490465161 -0.001819600827721655
758 -5.720236816069836e-07 -4.2757149246886786e-07 7.643466940614184e-07 -1.4009472495052833e-05 -0.00033057532415022164 0.0013014116284867398
484 -2.1367253603653345e-06 2.77199223128224e-07 -2.1204464880872923e-07 7.710818305384599e-05 -0.0006379333701182931 0.0007896910064694597
427 -2.987663284533508e-06 1.313192586392732e-06 5.315750481154683e-07 -0.0002408505365946946 3.323727296895683e-05 0.0005213917876046019
1390 -2.8938842599313743e-06 2.866657330455672e-06 1.4052011202887372e-06 0.0004090622475769135 9.189528130889209e-05 0.00022907891282922027
777 -3.349283559391474e-06 2.144114829489278e-06 -6.805963584058731e-07 8.994150502782e-05 0.00024464894076703966 0.0008794084804525049
783 -3.767283920418366e-06 1.2979874913820548e-06 -8.243088062716323e-07 0.0004791757165086995 0.00014177340585130668 -0.00020404603647693653
741 -1.319363397965316e-06 1.3176727126981754e-06 8.803270963440551e-07 -0.00029965913556466504 -7.356898382557676e-05 0.0007063331858944537
1539 -2.576771132938447e-07 -2.1367066296321445e-07 -6.422747814562192e-09 -0.0002632733195238214 -0.0003301290093534587 0.00022102255518574227
1461 9.124108251630636e-07 -4.014781464402728e-07 1.353242916777651e-07 0.00022711483354838032 0.0002491230162726994 0.0007949334164371678
787 2.3428038937261063e-07 -3.730330615730947e-07 -3.5385272208785143e-07 1.5889168926417057e-05 0.0001424568900509458 0.00014519767772871626
179 -1.5259734623178791e-06 -2.7635635533800006e-07 3.5020461878968817e-06 -0.002011628258087897 0.0010733996172973873 -0.00018968687507879372
1391 -2.7553512606923335e-06 -2.117033671887222e-07 -1.22371099362672e-07 0.00037270998897306315 -0.00044685945196342857 -3.7882709868946896e-05
168 -3.7419219225793653e-06 7.349395987144727e-07 7.527248604795645e-07 0.00034695890364939286 -3.785407391559009e-05 0.0013203955761379657
336 -2.6526795847648526e-06 1.563460957138927e-06 5.704953311900499e-07 -0.0002673671108984106 0.00015775493289594473 -0.0004342594047333745
373 -2.9519514198683006e-06 1.5934512527517808e-06 9.618438975673693e-07 0.0003974499144871309 3.2214324596023176e-05 -8.90909639295653e-06
29 -3.106359041603064e-06 1.211707730157065e-06 6.892133411875418e-07 -0.0001943019118145315 -0.0003085181881223734 -0.0005076075338705583
125 -5.916637828043761e-08 3.89481205369057e-06 2.3842427154349497e-06 -0.0010446067653075732 0.002887372022294867 -0.0013213277686407936
1560 -4.600234412993289e-06 5.9228375585762835e-06 -2.7943817124682466e-06 0.003962333545916778 0.00037808753601356544 4.587787407052714e-05
588 -3.645074734030661e-06 1.9254496875873917e-06 5.801119623295852e-07 0.0004570265211421691 5.588146227613616e-06 -0.0005238208693584406
89 -3.5362964205707825e-06 1.742877156766944e-06 -4.850867832000006e-07 0.0002035872109851881 -0.0003081271048711477 -0.0007711989770164613
428 -3.418249036147579e-06 1.4415767430775604e-06 -4.556046278322318e-07 5.599697633994407e-06 0.0005615862554420279 0.00010749208294459212
395 -4.104961435346058e-06 1.217787482424963e-06 3.8487124913301515e-08 0.0003254515211121116 4.447255316103822e-05 -0.00018238654046168
381 -3.1779863887357486e-06 2.36173829084478e-06 3.752218168590679e-08 0.0005655418557540811 -0.0007958316937433297 0.0008412300697469921
1957 1.136727286324117e-07 -6.927209546347914e-07 -3.6285818348418376e-07 0.00020339630130884276 0.00010977350572710987 1.4234742696482091e-05
411 -5.19038310359785e-07 2.6052095445336605e-07 1.7250570807306133e-06 0.001782075488314598 0.001380397693122133 -0.0002686216831314615
675 -2.4754641097138366e-06 -1.9953249082815045e-06 7.731204643305684e-07 -0.0004796801206566623 0.0005373646506892813 -0.001139258834248567
213 -2.889527611024652e-06 -1.2303549268036944e-06 -5.826945454984433e-08 -0.00011828912573923382 -0.0002560594605283285 -0.00027870696409098785
572 -2.572209039566465e-06 -2.105856113678406e-06 1.090571688199854e-06 0.00024896395090659787 0.00020161304518394852 -0.00030815368768941786
437 -2.753047917586845e-06 1.6756270348828706e-06 1.5754805783415424e-06 -0.00033603113134176524 -0.0007629806980849021 0.0005409981501167932
225 -4.285106737076245e-06 3.4753746715406776e-06 3.7809909325462554e-06 -0.0012042134444338807 -0.00048294626203873115 -0.000257646875812076
604 -3.4107509532874926e-06 1.1277383576284725e-06 7.783080409728808e-07 0.00044746640337161913 -0.0002451283514365972 -5.157357631957237e-05
837 -1.4542754568180285e-06 2.0401309544754146e-06 1.5597730372997495e-06 0.0008395833947292224 -0.00011029917578110743 0.0006213381041142986
641 -2.0518701656389914e-06 1.5253454779868363e-06 2.5354529056977775e-06 -0.0006155363477265831 -0.0007495122687809795 -0.0014189705202483
1094 -1.8874051689637001e-06 1.1768848385091957e-06 3.0092366269024966e-07 -0.00040017970388865056 0.001008868908613651 0.001525539402462231
519 -3.284052001488993e-07 -1.2252589326522986e-06 2.864086987137713e-07 -0.00021114697091302926 0.0003665149246512401 -0.00018899311064377473
119 -1.2634509706208858e-06 -1.6840976297499955e-06 1.3375993395832977e-06 0.00010619192048761193 0.00017743525095384599 0.0004722447123812427
322 -1.9929531221855195e-06 -1.02423592414156e-06 1.3547048555795527e-06 0.0005467408030380074 -4.1161913149840656e-05 0.00021156514240741397
1150 -2.1433237873034846e-06 -8.663092877572688e-07 2.792513854259043e-06 0.00033174972847181287 -0.00021040173402309795 -0.00018634130203991602
318 -2.3406614299458737e-06 3.992347212741793e-07 1.6179768703052052e-06 -5.786726683269357e-05 0.0006680211071024879 0.000519414054594667
1508 -4.93915113410365e-06 1.2490356671775672e-06 1.641644562914158e-06 -0.00010351856082070954 -0.00033066185949122857 -0.0008681644927964121
723 -3.026900561426482e-06 2.709159004389985e-06 -7.037184209697077e-07 0.00030828367125325357 -0.00010574899068118638 0.0012916497040164558
1280 -3.3023491019463178e-06 2.52547769049914e-06 7.212789674665569e-07 3.857521990094692e-05 -0.00021839398814815745 4.314922016248604e-05
361 -3.4503378108728945e-06 1.358961544355053e-06 4.3301260535923934e-07 0.00036911505514626396 -0.0004282333751504949 -2.537694031584575e-05
526 -2.8528618139019708e-06 4.841961513693454e-06 3.416721954240126e-07 -0.0015640816427196348 -6.368482200770914e-05 0.001018022130966119
1188 1.1041970417730852e-06 1.1280533998415858e-06 -3.724517749930771e-07 -0.0014015161377463948 0.0010799981717326383 0.001675145140949578
1380 -1.5075086478605143e-07 -3.7927738285082477e-07 -1.1854107546493303e-07 6.0993717038526316e-05 0.00011833036825852053 -0.00012902223854624364
624 -5.246405436940374e-07 -8.085709277823317e-07 1.3247093405696722e-07 0.00012544841675395322 -0.00023117734235142583 8.522050740141154e-05
509 -1.3936464245436886e-06 -1.8223820722520189e-06 4.630711697207069e-07 -4.772718016518493e-05 -0.00031780060899354345 -0.0005026043054544273
502 -1.9426232663050332e-06 -6.739485116429408e-07 8.523351378277792e-07 -9.324231817853112e-05 7.517423178184529e-06 -0.0001766897167237604
358 -1.970425369062969e-06 -2.1496133973555354e-07 2.593787353513983e-06 -0.0010305274139633682 -0.0001770548648781782 0.0009564611643447528
186 -2.4141575865591347e-06 1.4661352600982076e-06 1.1541742272906885e-06 0.00015796303840628532 -0.0006369848006332885 -0.0007357061388580596
957 -1.1001833342132405e-06 -6.829945613904501e-07 1.3293226956429693e-06 0.0002576965173571985 0.0006008368814607425 -0.00010706418072365328
310 -4.729599184334157e-06 2.1049697784364397e-06 6.797654550989927e-07 0.0004563543377281822 -0.0007520055002348011 -0.0009123731978937167
368 -2.370218954023318e-06 1.965548423613952e-06 -1.7758469170244466e-07 0.0006860888413921128 -0.00010025129592018176 1.87860026285462e-05
238 -3.30280864866452e-06 1.9982170376318625e-06 8.372013515675956e-07 -0.00010187452544409723 2.6337330459630023e-05 3.237398366518722e-05
830 -3.16179658547574e-06 1.7074891359138444e-06 4.2374826290196395e-07 0.0005692612902477671 -0.00014659025751943282 9.408229777800057e-05
351 -3.0725889871275174e-06 1.335131681191157e-06 5.866436869287794e-07 -0.00013773902817614046 -6.539023566031336e-05 -0.0004987396422815231
582 -3.9749726933892455e-06 4.6719369543949194e-07 1.3255960241253274e-07 0.00036626417830498963 -7.221063586670184e-05 0.0007212180945660218
385 -2.1382143878532103e-06 1.6078878933449765e-06 -6.280654903342764e-07 1.1091525005386786e-06 -0.0012822562200520704 -0.0014303165382470308
784 -9.029979180647899e-07 -4.809196333507409e-09 3.972760941969058e-08 -9.489080348373973e-05 -0.0002396312483225075 0.0007578366633545786
763 -2.282303023647146e-06 3.3479316732327213e-07 5.927613112095925e-07 -0.00047707634002934105 2.397241615577569e-05 0.0003483015163107795
1548 -2.7097783139391277e-06 1.3196293042561407e-06 6.670084161079822e-07 -0.0003721627354022223 -0.0004014453803083229 -0.00055531938760099
523 -2.4843829443078857e-06 1.8181916742893173e-06 9.080003029912177e-07 0.0002317804092286537 -0.0007073456365778174 0.00021720349367036065
1051 -2.8785069552647397e-06 1.7786722345905917e-06 1.0504060704922211e-06 -0.0007421340544350936 0.0006488644657768978 0.001553915668992076
726 -2.326282387299107e-06 1.261074436642782e-06 3.1966904260502734e-07 0.00018686499695563913 -4.451888945325201e-06 -0.00030476423319894687
1553 -1.97332295997851e-06 8.439116284665121e-07 7.416119020817664e-08 -0.00023633041270205085 0.0003310978582525946 -2.9151715119469504e-06
377 -1.981151794104654e-06 -7.170259993971368e-08 -3.15980746562769e-07 1.0474616883893783e-05 -6.803393882680988e-05 -0.0002848899874916545
196 3.3956618132736196e-07 6.895954490286179e-07 -8.895290620187613e-07 -0.00029465941297617606 0.0006744339271124515 0.000564039877910389
16 -4.642506830647462e-07 2.0689918938198619e-07 9.40506981260693e-08 0.0015303447532843079 -0.0008509915633244039 -0.00022069057661048682
524 -1.2575598601020816e-07 7.388304220118234e-07 -2.1707496671146618e-07 -0.0018347648595219766 0.0007027159762337808 0.0002833080377256321
288 -1.8393706994629486e-07 -3.099651634748726e-07 -5.417214954779073e-07 0.0004389630001444905 3.0123165034371104e-05 -6.680117251158012e-05
872 -4.84508440353984e-07 -8.314350086202245e-08 -1.8618378368361263e-07 2.6893813060289005e-05 -0.00022936981794434907 6.766359387718619e-05
262 -8.159582305499672e-07 -4.799536812739263e-07 2.831123549230182e-07 -0.0006461666201661505 -4.535485754068571e-05 -0.0007323678109608522
178 -2.3715881324895542e-07 -2.7412648758230455e-07 -5.757626423784679e-07 4.102295106790825e-05 -0.00038270585386810275 -3.156884764026501e-05
163 -1.7571598166334587e-06 -2.867080583240235e-07 6.862873757747423e-07 0.0005016099245613986 -0.00012130331825784772 -0.0006226236663395349
138 -2.448790426143819e-06 1.3781097779764702e-06 8.194154629617412e-07 0.00020442850250446858 2.7388301199473975e-05 -0.0009161723621284665
236 -2.394305244270331e-06 9.438386655324545e-07 -2.340335680229994e-07 0.0006285327702706329 0.00010927137162460476 -0.00024967906130544194
1286 -2.66024993269409e-06 8.140841857884527e-07 -5.660843207534562e-07 4.4024109880079235e-05 -0.00020670869701127885 -0.0001719973690024557
180 -1.3324692050134267e-06 3.2413125932326885e-07 -6.443997861060252e-07 0.00017320187076316104 0.00043095984993335055 9.748212210445849e-05
733 -1.4245573827196613e-06 1.1404628929082148e-06 -6.586167616793581e-07 -0.0011826512692509185 -0.0004719273682015869 -0.0009148309988481808
279 3.037168953004626e-08 -2.7476353681924796e-07 -4.88068163793762e-07 -2.0032889914721057e-05 -4.379779004735745e-05 0.0002536049632235737
244 -3.863280377590551e-07 9.269215933644179e-08 -7.454264040286434e-07 5.789471386076244e-06 4.0171583576224974e-05 -1.2152786146284076e-05
43 -7.779805514849202e-07 1.2381453665341224e-07 -1.2175499305702838e-06 0.0005171633240580054 -0.00028403506921527666 7.168742690660858e-05
190 -2.3651905488771998e-07 8.142473495805036e-08 1.3405710412065333e-07 -0.0002573017736036503 0.0001821171052060283 0.00014454481203153146
253 -7.623049347809525e-07 9.469567809507759e-07 -7.086220586001583e-07 -0.000370526862031701 5.938536486262017e-05 0.000659524773514377
369 -1.113756026107046e-06 4.280841543014484e-07 -6.859924144632278e-07 -0.0010202341781151076 0.00031550730809687936 3.244876468670046e-05
294 -2.360319449588654e-06 -2.987356937264811e-07 1.4066183438091824e-06 0.0008468605960154828 0.000515584325691366 -0.00023881319252398207
493 -2.732696473856901e-06 8.024310932356797e-07 1.3597113537761299e-07 0.00048523766925967 0.00016830530214316557 0.00014696949789691906
220 -1.8935777243948057e-06 -1.5198367007095665e-07 3.578218149092641e-07 5.479179662819342e-05 0.00033834385942915757 9.720979828842855e-05
1431 -1.7816026589234022e-06 -2.2173322424421965e-08 -2.2413022773051434e-07 -0.0003566237865631199 6.073184178695641e-05 0.0004980672875859729
44 -2.055232761839941e-07 1.027136507469434e-06 1.4981900970104008e-06 -0.00018990871220397104 0.00035662355740463 -0.00047357200029205285
991 -1.2649553378158145e-06 1.5014971791906563e-06 -3.0398080607396033e-07 -3.9511619147529085e-05 0.0008782660240552206 0.0012529302254604337
330 -1.2741297417061294e-07 5.787450077856207e-09 -3.2911683764255463e-07 5.478714366284162e-05 7.546080313129053e-05 -1.0217404668595805e-05
299 1.3189300876884499e-09 8.597682743491712e-08 -7.38175216860938e-07 -0.0004635437475940802 0.0002396869938086281 -0.0001248444739128009
652 -1.3053686277212088e-07 -3.390285389416385e-09 -3.226035819926207e-07 6.92981733000599e-05 -0.00038762290104683936 -2.9531865500703423e-05
99 -1.0378740025846007e-06 2.772612679568322e-07 -2.3350325310901845e-07 7.494044082551137e-05 6.167419859782568e-05 -0.00047277973791566043
232 -1.087881981327147e-06 2.2598872304780998e-07 4.7411016224521403e-07 0.001057913838902054 0.00034246015065440155 0.0001397132186994185
313 -9.743174084125395e-07 -9.66291543070928e-09 -1.2487007296002598e-07 6.767086052349948e-05 -0.0001721788991920779 -0.0002592285822149699
684 -1.3691170821283506e-07 -1.0894377964329503e-07 7.815636124536936e-07 0.0001554615072812884 -0.00029211290782046943 -0.00013283891806660603
472 -6.33068149104811e-07 -1.3060312471462523e-07 4.569685174515913e-07 -0.00011455729020695717 -0.0005018151504084852 -0.00023751536908197545
816 -7.680127365047586e-07 1.845387812532184e-07 1.6426207963523934e-06 -0.0003392145273973649 -7.469855429191975e-05 -6.638415367063556e-05
857 -6.163559597060451e-07 8.09317854491578e-08 4.447432810119314e-08 7.697099293175474e-05 1.7174689504337439e-06 -0.00030051891361339425
1452 -1.2282468443929393e-07 1.777832119535819e-07 -2.7180128682560136e-07 0.0003869816425004968 0.0002876739622139413 4.911865723042672e-05
327 -4.051124886160394e-07 1.1053848287920934e-07 1.400678760485671e-07 -4.960978008594885e-05 -0.0007247910332186425 -0.0003654889023950889
1396 -1.2376491012764463e-06 -1.3380891919418522e-07 1.6696362864689977e-07 7.696016976230172e-05 -0.0004923087612854112 -0.0002644960485041785
224 -5.2434322547532806e-08 1.262344969069154e-07 7.13621436658374e-07 -0.0005598939414230835 -0.00011729834529510985 -0.0001167199642770693
459 -1.6422311968681959e-07 -9.879906475399799e-08 -1.6976843992511805e-07 -9.177693578403518e-05 -0.00015082943934659207 -0.00021163965630133076
527 -8.174217120592427e-08 5.5294202151651505e-08 5.808009434485812e-07 -0.0005147123566412818 -0.00011868844270721067 -0.00037496129047877535
695 -6.465363864582005e-08 -2.56994710386338e-07 2.2583958087513163e-08 0.0005628676788222032 -2.7570431788878753e-05 -7.77108150634694e-05
749 -5.974209325525115e-07 3.0045381012759553e-07 -9.85744873218701e-07 -0.0004810560818072434 -0.0006448148077538417 -1.578333146864059e-05
748 -4.808525063212612e-07 -8.437672864140912e-08 2.694414634257563e-07 0.0002972594071552788 -0.00028078560967680804 -5.303679049983727e-05
97 5.840297611163098e-07 1.5233281415467465e-07 -5.74511926467266e-07 0.00046583184963381696 0.0009085638895092117 0.00035965835765467286
250 -3.1950903083535237e-06 1.8705481916154568e-06 2.8950043536673936e-07 1.9512398687648575e-05 -0.00039495585391904604 0.0008370745877110316
610 -1.5216032307179032e-07 -3.145507063445601e-07 9.60410477074897e-08 0.00035214122463073794 0.00013708984183802137 -0.00022017264678118978
115 -8.549407202738746e-07 -4.2549881842721493e-07 -1.0040343498254698e-06 0.00018972400571278073 -0.00023751800847215512 -0.00038880358594953126
420 3.067608386033223e-06 -2.059291002286064e-06 4.572492433906078e-08 0.0026236642682211948 0.0037074002642629696 0.0006885861466490445
2100 -2.1044064944743657e-07 1.4159720733635316e-07 2.684005335232112e-07 0.00015048031142810648 3.571830195721259e-05 -0.00010151412394101017
370 8.067046463152632e-08 -1.0410890073225282e-06 -1.485209921037372e-07 -0.00035095711807690177 -0.0002393519694819269 -0.00011510782970559335
320 7.609358303628982e-07 -3.14970865273747e-07 -1.4194175028781876e-07 0.0007660380344185495 6.919406186977996e-05 0.00037905066597434313
286 2.2373106637423632e-07 2.566314757981521e-07 7.7098582089235e-07 0.0001128091474137388 0.0001215663054270215 4.694699464320272e-05
382 -2.036718916590817e-06 3.494525645163282e-07 2.426110846971097e-07 -0.0003882607894061119 0.0006278581221904391 0.000314280942209447
195 -1.4075575252258118e-06 2.8040434566653527e-06 6.74864270543668e-07 -0.0003675117312918588 0.0008764610371455849 -0.00023628926107990969
819 -2.481562114263954e-07 -1.239276082064319e-06 4.0030916067931135e-06 -0.001601424244058863 0.0013595248136024085 0.0007715264149575205
1181 -4.3380620429960343e-07 -5.178738032192613e-07 1.3597311879679435e-06 0.0009318177296195933 0.001140976437353609 -0.00017398246783384793
416 -2.3148894697464903e-07 -2.4097306566986385e-06 2.4323595089335873e-06 0.0021558673260343372 0.0007035185383717211 0.001518155422089753
406 -8.373250537889576e-07 -1.8072456779985106e-06 9.70871371008202e-07 -0.00035307682205998 0.00023192494652478292 -0.0002202565189426709
483 -8.196343643068827e-07 -5.329512379714584e-06 1.4857760858387858e-06 0.0039137060026949244 -0.00027841163938714203 -0.002135474222120093
517 -2.3023412824987386e-07 4.301909027700719e-07 4.906799362148237e-07 0.00013081219973891774 0.0008021291820400438 -0.0005303980651397144
581 -2.9384560464193926e-06 4.957036820441786e-07 5.568442357615824e-07 0.0005234992955998296 9.391837477065238e-06 1.5263900862293335e-06
1438 -3.0172381128232435e-06 7.740410959582697e-07 5.310243082750329e-07 0.0001651397487342751 0.00018344468573879097 -9.188380631299912e-06
760 -5.1089570185941846e-06 8.331055387481992e-06 -1.9780939144285922e-06 -0.004861393226859512 -0.001163017976969324 0.0011526495323023597
71 -1.5440345655551988e-07 1.9001891788281397e-07 1.1406024152519767e-06 -0.001209424433704857 -0.0004471799370691764 -0.00014039283813562948
223 -1.915004264254025e-06 -3.132298300362162e-06 3.1362043352761004e-06 -0.0021933112198207557 0.0008575894404942587 -0.0008867686245907928
45 -2.003937591308176e-06 -2.063166943620081e-06 1.6582731599671992e-06 0.0015169434512311776 -4.044213854499523e-05 0.001411554327681789
1021 -1.7032153567010255e-06 -1.623240892305253e-06 9.509633708030045e-07 0.0005325658459671542 0.0009890865031108615 9.300567754869122e-06
1005 -5.668835132146274e-07 -1.9893668690552866e-06 1.5467765891183015e-06 0.0006306613453350293 -0.001196180734098327 -0.0006424203766988127
1134 2.102767117656003e-06 -3.7421126644979032e-06 3.620909659686768e-06 0.0002271557577281266 0.0005914719014032323 0.0009569752436576958
137 -3.021262985953991e-06 -1.7174949351624076e-06 4.914399751821925e-07 0.0007407118829726202 7.995252752452012e-05 -0.00017259544339760216
575 -3.0270418514843032e-06 -2.85447329001046e-06 1.0471335533303885e-06 0.000489848464924562 -0.0004103939362457772 -0.00036424913664272716
306 -8.417159390388056e-07 2.498106506213668e-06 1.5193707445424526e-07 -0.0007613047135328798 0.0008116353848511378 -0.00022260753096969136
560 4.619034969568514e-07 5.625925241416522e-06 1.2016365469402028e-06 -0.0006101821706344811 -0.001344261349498523 0.001514184062395163
555 -3.930843435429095e-06 1.9423881473711933e-06 3.188893674992652e-07 -0.0006930315359219029 -8.089498131847687e-05 0.0003161133380524859
750 -3.2916663041119624e-06 -1.0989141782426795e-07 5.263525427572917e-07 7.855509072780357e-06 -0.00024030647693768772 -0.0004981303926433404
1032 -5.2804439817353474e-08 -6.513738906214089e-07 -6.766211311671877e-08 7.532256231503516e-05 -0.0001578286879883594 -4.5852853418617554e-05
744 -1.5955976550466515e-06 -1.6647327636533236e-06 1.6527237650554963e-06 -0.0003012264654308895 -5.0776740235575496e-05 -0.00011814298224184488
700 -1.7015618452182852e-06 8.101955207336687e-07 1.4899897738799459e-06 -0.00013277287127388469 0.0008384066152498155 0.0012533018364622478
40 -3.0774994910207e-06 1.7702114552071762e-06 1.3738478995542195e-06 -0.000525424251336261 0.0007325257659692247 -0.00026617800500303396
37 -4.440640242760411e-06 1.4805748688339268e-06 -1.0970354058877144e-07 -0.0005441988990116843 0.0005403550907937629 0.0011056521831815465
3 -5.675222520459628e-06 1.2121754204860387e-06 2.489088107054469e-07 0.0007605342943265987 -0.00021038181431036641 0.002140374148044207
711 -4.050833582870389e-06 4.6011866034600955e-06 7.168457215657744e-07 -0.00043132641810892546 -0.00019582320371483488 -0.0007071505722483454
1057 -3.7384096857773657e-06 2.2058198899411978e-06 5.785104496505895e-07 0.00010042748563675018 0.00035166806598364825 -0.0003154102855860949
1117 -3.570490600733319e-06 3.4041015859087817e-07 8.351278356608487e-07 -0.00032041717812352275 0.0004190491648338376 -0.000502372380099341
767 -2.628473828483159e-08 -1.0048542833860026e-06 4.396726023036401e-07 5.8872736955097236e-05 0.0005183022306289281 0.00021489953364725874
362 -1.9124000559154575e-06 -1.9974328425636602e-06 6.261353938989801e-07 -0.0003374846035439797 -5.5437406357802555e-05 0.0002379900171785016
565 -1.7499176527306257e-06 -1.4414594902885709e-06 8.96652804558889e-07 0.0002797822990274936 9.015280609457973e-05 0.0002464160621623856
32 -2.896723054262779e-06 -5.010946605837443e-07 1.6945687003276474e-06 -0.0003640999430623219 -0.0008503151737420846 0.00021128993864042748
461 -4.515473692592856e-06 1.6329292181678758e-06 1.4792186898895173e-06 0.0004397661864710131 0.00010202413720096512 0.0002219877182115154
101 -4.55210579791128e-06 4.694627507359844e-07 1.3841544534008519e-06 0.0016280699710732567 0.0005225020581574306 -0.00043343019371148815
4 -7.127703667834934e-07 -5.256549784944587e-07 7.947928586649225e-08 -7.372109012677254e-05 0.00027919925467096834 -7.552532308510556e-05
390 -2.1618888557539973e-06 -8.330960304760801e-07 6.12521917245641e-07 0.00047643526996682335 -0.00014663912943457274 0.00013879480449874312
41 -5.079607862199077e-06 -7.025957086882227e-07 2.664452173421711e-06 0.0008284283225128081 -0.00017367107243523866 0.00021885202242773728
686 -4.011268404305421e-06 1.407884669373186e-06 2.7794685896173156e-06 -0.00047224867951128186 -0.0007041705239066515 0.0002287887586613379
597 -3.535871363785768e-06 1.4147378800318128e-06 9.069710693516086e-07 -0.0003467438227112266 0.00021948243623333094 0.00047882260892778597
105 -3.5261086827650177e-06 -1.5029326807716491e-07 1.5361861123323438e-06 0.0018499644811456586 -0.0008755435998763756 -0.0012594751674843139
300 -3.3516384987671932e-06 2.9128723626258447e-06 5.606809209259384e-07 -0.0005585240972339541 -6.984215459733076e-05 -0.0006061164964175391
141 -1.8171105049883908e-06 1.2658165766447748e-06 2.608883383843003e-07 -4.94919474088251e-05 -0.00023296422117968736 -0.00018201383753412844
643 -2.4240356865103934e-07 -8.284530265952249e-07 -7.243999932434901e-07 -0.0005334530095368447 4.356107691837335e-05 -6.558089300028558e-06
579 -1.8646573481617962e-07 3.5939314455335187e-07 -4.671440793337393e-07 -0.0002148942520022099 0.0003855260557745671 -0.0004366713698694051
348 -1.151514051165562e-06 3.906254052623999e-07 -1.3062817693637846e-07 -0.00018271463898116878 -9.078574270971466e-05 -0.000859476035767321
761 -2.119279430216481e-06 -2.043086903034325e-06 -1.3416286750214976e-06 0.0005174851858082749 0.0004542598592935546 -0.0025333578307847344
383 -2.526633806121705e-06 3.95170053237629e-07 9.455248809907392e-07 -0.000294214610586964 -0.0012658573868180147 -0.0008342010483119181
93 -1.8943077350171702e-06 2.049765095969566e-06 -1.320683741800159e-07 0.00021168131751838048 -0.000657715007416882 -0.00022034934449601963
1054 -3.016810450498125e-06 5.411327268957396e-07 1.937997834245445e-06 0.00021991771186851086 0.00035027491153648646 -0.0005700177382391892
65 -3.2771783758336347e-06 1.6928291938450585e-06 7.839110201554327e-07 -0.00034215822076372307 -0.0006092750819957552 -0.00087258298093035
1571 -2.118237719239846e-06 5.848643797960319e-07 1.1183592097617624e-08 0.0001433403786046598 0.00035227186008854116 0.00037287034900393916
759 -3.0080862319470004e-06 1.8021805556596359e-07 -5.502167537762399e-07 -7.121346120975586e-05 -0.0008643195064584866 -0.0006388166889095568
1331 6.479254815840262e-08 -1.717548024195396e-07 -3.832324321181505e-07 -0.00018647569931469696 8.224195969324003e-05 -7.510847033552637e-06
116 2.0392686216515573e-08 -1.2343656771145726e-07 -3.888706544900203e-07 1.0098903172722368e-05 0.0003111254177358981 9.863063266702876e-05
1004 -1.0639340739258688e-06 2.851424176084739e-07 -4.0094351789527035e-07 2.0761496264656644e-05 -4.830406295357312e-06 0.00043381541343994834
87 -1.910789447351032e-06 4.201014116265967e-07 1.2061502054056656e-06 -0.0005898192150668489 -0.0005493163706056666 -0.00012565766230182617
403 -2.415620697528345e-06 -9.400290940416366e-08 1.3040013294443386e-06 -9.807652857490872e-05 -0.00024135429084274864 0.00036499044416866294
419 -2.0185399032435476e-06 8.452581112125233e-07 7.618998070585127e-07 -0.00012462841362051214 0.0002318998953087612 0.00013077655006351956
1061 -1.8938968933607992e-06 -2.585161197139469e-07 8.609663183266137e-07 -0.00016501997098753828 -0.0004338778671265743 5.8188739456485246e-05
632 -3.0045854138993693e-06 1.64744655512784e-07 2.9522044855458604e-07 -0.00027925154060442575 -8.367361028127392e-05 0.00011184826283676932
1122 -2.1692321620666013e-06 -7.039486793922405e-07 8.057032121002947e-07 0.0005812554193099638 0.00017594163133449625 -0.0003305196696929279
1338 -1.4000205385687306e-06 -1.4275860454070463e-07 3.1669642027130037e-07 0.0007517807452009356 0.0002741440209180077 -0.0003350165214543652
752 -1.4196391027113405e-06 7.268294005582456e-07 -4.446262601026611e-07 0.0016797183812964456 -0.00029921896708385724 -4.8960439197835746e-05
650 1.27232981320505e-07 -9.958232937992654e-08 -5.836651844006389e-07 0.00011513785637213978 0.00015069961346466455 -9.545673341624661e-05
1339 2.47550470988686e-07 1.0574414055586846e-07 -6.937680554183924e-07 0.00043982004717158326 -0.00017164009467891545 8.259126165166578e-05
742 -6.965712546704359e-07 3.329337511505889e-08 7.266964350813668e-08 -9.966591138322037e-05 0.00029274288661558295 -0.0002780140774034669
100 -1.2893451190566783e-06 1.1186647445070556e-07 1.505819996616453e-07 -0.0001814834694362339 -0.0003880679948380426 -0.0004826256280767538
1025 -9.713480428925194e-07 -5.580178941743363e-08 1.5111756933108362e-06 -0.0006881971269901615 -0.0001248281777641345 -0.00033408807607139264
625 -1.8513421533068121e-06 4.320744489664799e-07 1.316246918407849e-07 -4.8857296242810735e-05 0.0008196333547960797 -0.00024868842915789087
1159 -1.9764258681916955e-06 -1.015220629888025e-08 -4.3613259837064074e-07 0.00025967706224144294 -0.0005122725058055133 -0.00040018154675026707
284 -1.0202497831586027e-06 1.71566683102588e-08 4.648096901196457e-07 -0.00026219014399066974 -0.0006545389399235819 0.0001134410772527869
537 -1.0478819760782252e-06 5.629704420824965e-08 4.197018861424368e-07 -0.00017398339689283644 0.0005633981978505237 -9.459546298696829e-05
1007 -1.235435830741327e-06 -1.2509674102408496e-08 2.5289033746826633e-08 0.0008866415454265754 -0.00036802206258298146 -0.00023651687546425614
1906 3.3408923849597515e-08 -6.12222403325572e-07 4.019418455188269e-07 8.802559661544852e-05 -0.00019712586202029936 -0.00039627923128375233
1379 2.4758627174554234e-07 -7.370371535817561e-07 6.569515798380369e-09 0.0004668961448431431 0.0003273309478976735 0.0004964468912616632
386 2.1799858384951016e-07 -2.554929797310678e-06 1.3314798498874397e-06 0.0014344370159865387 -0.0002431711825498033 -0.00042321772530070777
446 -1.2595693897830482e-07 -1.8386659703285373e-06 3.7656086487188375e-06 0.00139700588595253 -0.001489097653349667 -0.0006618016509688819
689 -2.1769471007303017e-06 -1.5102153088037267e-06 1.7406122833905683e-06 -0.0006574060981649576 0.0006897416799423261 0.001122112239379205
436 -1.6514265277460719e-06 -3.658575119990106e-06 1.5459283219194992e-06 0.0017528079209540933 -4.2337157232650834e-05 -0.001532129142920315
1066 -1.6616151302547373e-06 -2.4584712585421235e-06 9.592732875953467e-07 -9.667498480917577e-05 -0.000956510666685715 0.0005026682975848414
1521 -1.2464834653415624e-07 -1.3483768059448095e-06 -4.508770300387123e-07 -1.2869199931109528e-05 0.0003338266283767454 0.0014602863245902215
374 -6.758756157830885e-07 -1.1603543626038572e-06 4.32892358708359e-07 0.00010682220281729595 -0.0007878523924004943 -0.0011601916473127942
670 -5.676858826523541e-07 -2.6883454549105423e-06 2.539433701501649e-06 -0.0009615269762949817 -3.5094704667313825e-05 0.0007526575602386926
1012 -6.0498049531454e-07 -8.326280215161074e-07 1.449523759977747e-06 -0.00012638833729485864 0.00044279859815321516 -0.00011184289625187021
795 -8.772415274878146e-08 -1.885407253603156e-06 4.747755583888862e-08 0.0005025075987257876 5.976968386874262e-05 -0.001056768761197504
945 -9.983018879647013e-08 -1.7441682350948707e-07 1.0991976391981261e-07 -0.00032163497639383883 -0.00030437154193001427 0.00018762281377003657
521 -3.166192972944357e-07 -4.6177961747262314e-07 4.0161707217738647e-07 -0.00040670073848984 -0.0005353145447164222 0.0005916067668413972
471 -3.629814260445218e-07 6.464884927677872e-07 5.729743403604295e-07 -0.0006015018477590676 0.0004916741028673032 -0.0008672408650215512
21 -6.3335608776787335e-06 1.8557615318300637e-06 -7.318865666416576e-08 -0.001865764037315549 -0.0016247518725161214 0.0006625852798633111
397 -6.544891873150468e-06 -7.568856779811788e-07 6.385952222069904e-07 0.00079917501149952 -0.001589800658547803 -0.0008903436045593255
589 -4.6164225956616686e-06 2.369270336216284e-06 1.2357852403719503e-06 -0.002409761623684744 0.00047090314740446147 -0.0002637556398262113
497 -6.137286659704252e-07 -7.147216342696324e-07 -7.02593029812305e-07 0.0004972843309397013 -0.00022884569900168535 -0.00011734960152415143
583 -6.896221086592336e-07 2.7397505672936724e-07 -3.155094340263754e-07 -0.00013944086226941947 0.0002441247614674379 0.0008837697368022453
1517 -3.3287748557009665e-06 -4.73824532598805e-07 1.4004740855154654e-06 0.0014896775936599435 -0.0007145486037234498 -0.0004349112542349781
634 -2.7566535850172184e-06 -2.0489914970524527e-07 2.012617528387467e-06 -0.00017745896119835278 -0.0001498880668867831 -0.00035778964650049947
126 7.736550307680334e-08 -2.1613983933956211e-07 -1.520514966431705e-06 0.00021221866395343945 0.00031854528391697673 2.782398095600476e-05
70 -1.1496488914643619e-06 -3.8251995064702167e-07 -1.3478294916271817e-06 -0.00021090317748644692 6.00219750952558e-05 -0.001046350396237354
492 -2.283994893762126e-06 -4.779528732240995e-06 -6.531972433518374e-07 0.0018517866426362379 -0.0011339911142027228 -0.00028938632346813816
936 -2.3756306623352194e-06 -4.3054623405017085e-06 1.0779674180149894e-07 2.440768054720905e-05 -0.0013533814266370133 0.0016296234603721388
679 -2.6614487083238547e-06 4.213863849217551e-07 1.0944363260980014e-06 0.0003402574687852668 0.0008237506184748513 0.0003823358957428586
332 -3.3282704044573603e-06 -5.767066505241159e-07 1.202648733669218e-06 -9.077815638155879e-05 -0.000804234544305023 -0.0007160897470703063
18 -2.9811435079433987e-06 2.177568195250329e-07 1.6133397948480799e-06 -0.0014319193466087712 -0.0006955950671244364 0.00100683472478312
197 -2.404936488587442e-06 1.0877834845558023e-06 7.408134858788358e-07 -0.00019613165805502098 -0.00027664792417413087 -6.345697077839688e-05
363 3.4489612502830205e-08 4.671534906592063e-08 -4.1136115643382604e-07 0.0001674226195286047 3.2441604296034534e-05 -2.5294671972420164e-05
102 -4.2490895960896215e-07 3.3471254359156693e-07 9.385342334712194e-08 -0.0001931661837860908 -0.00010248872399833176 0.00032760619776985153
569 -1.6021298131655415e-06 -3.445501604107032e-06 -9.100246849545191e-07 0.0014801081986567431 -0.00014970844957678327 -0.0020370053889433846
67 -1.080709106595548e-06 6.076650955065719e-08 -2.7385200035375276e-07 1.3025373420948543e-05 6.500666525064669e-05 -0.00040837119470640577
552 -1.5384581071721422e-06 -6.604299865881512e-08 3.71640137321224e-07 -6.653391542096761e-05 0.00029822712770524636 -0.00033479051076311503
460 -1.973687543910989e-06 2.4372402664086985e-07 -6.458416083569821e-07 -3.222306148127878e-05 -4.212034905850733e-06 0.0003260051744455602
113 -2.0203391581686823e-06 2.7704007602546394e-07 9.475437913922337e-07 -9.158994820001524e-05 -0.0004196722270227227 -0.0008763980684646995
2099 -1.463095841119936e-06 -3.0998729456497533e-07 2.0723859880158423e-06 0.0009018301872613382 -0.00010419093787503671 0.00027546575998383353
657 -1.3943347442310307e-06 1.4096029657435843e-07 2.9023620333472717e-07 -1.9364326543083768e-05 0.00046003414405225315 -0.00043289562197014903
94 -9.418855854314243e-07 4.861534673983548e-07 -1.3498594133152528e-06 -0.00047447434090890973 -0.00045475045073893085 -0.0005370226789642697
447 -6.285160741302632e-06 -2.5907017475945215e-06 2.1377805703501237e-06 0.0022779032633032732 0.0001942435062009208 -0.002424302151055449
533 -1.491090722424296e-06 7.410017273042225e-07 -1.1197669947857639e-06 -0.0003901809304484466 0.00026166759816786386 0.0004720767010990161
167 -4.588709568445526e-06 -9.100136765265293e-07 9.190167550322403e-07 -0.002971340570266719 -0.00010293697766829062 0.0013198323998968452
221 1.5938244216745172e-07 -7.055115803872369e-07 -5.804841729401666e-07 0.00011352409108910397 4.78199117945424e-05 -9.126415279678515e-05
635 1.0025525826033956e-07 2.3323219456655874e-07 -4.086635122873554e-07 -0.00022001208322318275 -0.00025408168298312255 0.0004996956477518727
290 -2.649414631856504e-08 4.5228526394769e-07 3.280263912803257e-07 0.0002877613012351584 0.00016155282730679715 -0.0005406587665475798
301 -1.8200702111471233e-06 1.5332247479778145e-06 5.401129827917206e-07 -0.0008995829004917579 -0.0003341414944961791 -0.00011322970705113026
592 -2.647282864090646e-07 -4.899499997117426e-08 -4.87199765323533e-07 4.411208650783632e-05 0.0006570400036796691 0.00012887608183709436
66 -6.576999407438313e-07 -1.4363040034502195e-07 -2.5305425327139473e-07 0.0008049124528287304 -8.020751122121463e-05 -0.0005840722859271524
571 -4.055142978062713e-07 1.6078743405454438e-08 -2.6567146565366453e-07 -0.00015785236033336158 -0.00018240199184861204 0.0001993411794651667
