LAMMPS (7 Feb 2024 - Update 1)
OMP_NUM_THREADS environment is not set. Defaulting to 1 thread. (src/comm.cpp:98)
  using 1 OpenMP thread(s) per MPI task
# LAMMPS input script for granular settling simulation
# Spherical particles falling and settling under gravity

# Initialization
units           si
atom_style      sphere
boundary        f f f
newton          off
comm_modify     vel yes

# Domain definition
region          box block 0 0.1 0 0.1 0 0.2 units box
create_box      1 box
Created orthogonal box = (0 0 0) to (0.1 0.1 0.2)
  1 by 1 by 1 MPI processor grid

# Particle properties
variable        density equal 2500.0    # kg/m^3 (sand-like)
variable        radius equal 0.0025     # 2.5mm radius (5mm diameter particles)
variable        diam equal 2.0*${radius}
variable        diam equal 2.0*0.0025

# Create multiple batches of particles in different regions for better random distribution
# Batch 1 - upper region
region          creation1 block 0.01 0.09 0.01 0.09 0.15 0.19 units box
create_atoms    1 random 800 12345 creation1
Created 800 atoms
  using lattice units in orthogonal box = (0 0 0) to (0.1 0.1 0.2)
  create_atoms CPU = 0.001 seconds

# Batch 2 - middle-upper region
region          creation2 block 0.01 0.09 0.01 0.09 0.11 0.15 units box
create_atoms    1 random 800 54321 creation2
Created 800 atoms
  using lattice units in orthogonal box = (0 0 0) to (0.1 0.1 0.2)
  create_atoms CPU = 0.000 seconds

# Batch 3 - lower-middle region
region          creation3 block 0.01 0.09 0.01 0.09 0.07 0.11 units box
create_atoms    1 random 600 98765 creation3
Created 600 atoms
  using lattice units in orthogonal box = (0 0 0) to (0.1 0.1 0.2)
  create_atoms CPU = 0.000 seconds

# Set particle properties
set             group all diameter ${diam}
set             group all diameter 0.005
Setting atom values ...
  2200 settings made for diameter
set             group all density ${density}
set             group all density 2500
Setting atom values ...
  2200 settings made for density
set             group all type 1
Setting atom values ...
  2200 settings made for type

# Define groups
group           particles type 1
2200 atoms in group particles

# Zero all velocities to prevent initial random motion
velocity        all set 0.0 0.0 0.0 units box

# Neighbor list with larger skin distance
neighbor        0.003 bin
neigh_modify    delay 0 every 1 check yes one 4000

# Particle-particle interaction with restitution coefficient
# Restitution coefficient ~0.7 for partially elastic collisions
pair_style      gran/hertz/history 2e8 NULL 5e7 NULL 0.3 0
pair_coeff      * *

# Smaller initial timestep for stability
timestep        0.0000005   # 0.5 microsecond initially

# Gravity
fix             grav all gravity 9.81 vector 0 0 -1

# Walls (granular walls) with same contact properties
fix             zwall1 all wall/gran hertz/history 2e8 NULL 5e7 NULL 0.3 0 zplane 0.0 0.2
fix             xwall1 all wall/gran hertz/history 2e8 NULL 5e7 NULL 0.3 0 xplane 0.0 0.1
fix             ywall1 all wall/gran hertz/history 2e8 NULL 5e7 NULL 0.3 0 yplane 0.0 0.1

# Time integration
fix             integrate all nve/sphere

# Output settings
thermo_style    custom step atoms ke pe etotal vol
thermo          2000

# Check for lost atoms
thermo_modify   lost warn

# Dump for visualization (every 1000 steps)
dump            viz all custom 1000 dump.grain id type x y z radius vx vy vz
dump_modify     viz sort id

# Initial equilibration with very small timestep
run             30000
Generated 0 of 0 mixed pair_coeff terms from geometric mixing rule
Neighbor list info ...
  update: every = 1 steps, delay = 0 steps, check = yes
  max neighbors/atom: 4000, page size: 100000
  master list distance cutoff = 0.008
  ghost atom cutoff = 0.008
  binsize = 0.004, bins = 25 25 50
  1 neighbor lists, perpetual/occasional/extra = 1 0 0
  (1) pair gran/hertz/history, perpetual
      attributes: half, newton off, size, history
      pair build: half/size/bin/atomonly/newtoff
      stencil: full/bin/3d
      bin: standard
Per MPI rank memory allocation (min/avg/max) = 11.35 | 11.35 | 11.35 Mbytes
   Step        Atoms        KinEng         PotEng         TotEng         Volume    
         0        2200   0              0              0              0.002        
      2000        2200   16.483067      0              16.483067      0.002        
      4000        2200   8.8164378      0              8.8164378      0.002        
      6000        2200   5.6948636      0              5.6948636      0.002        
      8000        2200   4.0796845      0              4.0796845      0.002        
     10000        2200   3.1873136      0              3.1873136      0.002        
     12000        2200   2.5665924      0              2.5665924      0.002        
     14000        2200   2.155439       0              2.155439       0.002        
     16000        2200   1.7789289      0              1.7789289      0.002        
     18000        2200   1.5426659      0              1.5426659      0.002        
     20000        2200   1.336425       0              1.336425       0.002        
     22000        2200   1.1978084      0              1.1978084      0.002        
     24000        2200   1.0700904      0              1.0700904      0.002        
     26000        2200   0.94954206     0              0.94954206     0.002        
     28000        2200   0.85472903     0              0.85472903     0.002        
     30000        2200   0.77956097     0              0.77956097     0.002        
Loop time of 10.7284 on 1 procs for 30000 steps with 2200 atoms

99.7% CPU use with 1 MPI tasks x 1 OpenMP threads

MPI task timing breakdown:
Section |  min time  |  avg time  |  max time  |%varavg| %total
---------------------------------------------------------------
Pair    | 1.8802     | 1.8802     | 1.8802     |   0.0 | 17.53
Neigh   | 0.42274    | 0.42274    | 0.42274    |   0.0 |  3.94
Comm    | 0.017611   | 0.017611   | 0.017611   |   0.0 |  0.16
Output  | 0.19746    | 0.19746    | 0.19746    |   0.0 |  1.84
Modify  | 7.7744     | 7.7744     | 7.7744     |   0.0 | 72.47
Other   |            | 0.4359     |            |       |  4.06

Nlocal:           2200 ave        2200 max        2200 min
Histogram: 1 0 0 0 0 0 0 0 0 0
Nghost:              0 ave           0 max           0 min
Histogram: 1 0 0 0 0 0 0 0 0 0
Neighs:           3863 ave        3863 max        3863 min
Histogram: 1 0 0 0 0 0 0 0 0 0

Total # of neighbors = 3863
Ave neighs/atom = 1.7559091
Neighbor list builds = 185
Dangerous builds = 0

# Increase timestep gradually
timestep        0.000002   # 2 microseconds
run             30000
Generated 0 of 0 mixed pair_coeff terms from geometric mixing rule
Per MPI rank memory allocation (min/avg/max) = 12.93 | 12.93 | 12.93 Mbytes
   Step        Atoms        KinEng         PotEng         TotEng         Volume    
     30000        2200   0.77956097     0              0.77956097     0.002        
     32000        2200   0.57732523     0              0.57732523     0.002        
     34000        2200   0.44751022     0              0.44751022     0.002        
     36000        2200   0.36121446     0              0.36121446     0.002        
     38000        2200   0.30441438     0              0.30441438     0.002        
     40000        2200   0.25946939     0              0.25946939     0.002        
     42000        2200   0.22224218     0              0.22224218     0.002        
     44000        2200   0.19901223     0              0.19901223     0.002        
     46000        2200   0.17744568     0              0.17744568     0.002        
     48000        2200   0.16031946     0              0.16031946     0.002        
     50000        2200   0.14968083     0              0.14968083     0.002        
     52000        2200   0.14122067     0              0.14122067     0.002        
     54000        2200   0.13569919     0              0.13569919     0.002        
     56000        2200   0.12953773     0              0.12953773     0.002        
     58000        2200   0.12582437     0              0.12582437     0.002        
     60000        2200   0.11954331     0              0.11954331     0.002        
Loop time of 7.25098 on 1 procs for 30000 steps with 2200 atoms

99.9% CPU use with 1 MPI tasks x 1 OpenMP threads

MPI task timing breakdown:
Section |  min time  |  avg time  |  max time  |%varavg| %total
---------------------------------------------------------------
Pair    | 1.207      | 1.207      | 1.207      |   0.0 | 16.65
Neigh   | 0.23203    | 0.23203    | 0.23203    |   0.0 |  3.20
Comm    | 0.012055   | 0.012055   | 0.012055   |   0.0 |  0.17
Output  | 0.15159    | 0.15159    | 0.15159    |   0.0 |  2.09
Modify  | 5.35       | 5.35       | 5.35       |   0.0 | 73.78
Other   |            | 0.2983     |            |       |  4.11

Nlocal:           2200 ave        2200 max        2200 min
Histogram: 1 0 0 0 0 0 0 0 0 0
Nghost:              0 ave           0 max           0 min
Histogram: 1 0 0 0 0 0 0 0 0 0
Neighs:           4890 ave        4890 max        4890 min
Histogram: 1 0 0 0 0 0 0 0 0 0

Total # of neighbors = 4890
Ave neighs/atom = 2.2227273
Neighbor list builds = 144
Dangerous builds = 0

timestep        0.000005   # 5 microseconds
run             40000
Generated 0 of 0 mixed pair_coeff terms from geometric mixing rule
Per MPI rank memory allocation (min/avg/max) = 12.93 | 12.93 | 12.93 Mbytes
   Step        Atoms        KinEng         PotEng         TotEng         Volume    
     60000        2200   0.11954331     0              0.11954331     0.002        
     62000        2200   0.11412853     0              0.11412853     0.002        
     64000        2200   0.10957432     0              0.10957432     0.002        
     66000        2200   0.10828255     0              0.10828255     0.002        
     68000        2200   0.1118398      0              0.1118398      0.002        
     70000        2200   0.11505273     0              0.11505273     0.002        
     72000        2200   0.12123707     0              0.12123707     0.002        
     74000        2200   0.12639189     0              0.12639189     0.002        
     76000        2200   0.13201924     0              0.13201924     0.002        
     78000        2200   0.13436786     0              0.13436786     0.002        
     80000        2200   0.13209608     0              0.13209608     0.002        
     82000        2200   0.12366269     0              0.12366269     0.002        
     84000        2200   0.10477272     0              0.10477272     0.002        
     86000        2200   0.084955839    0              0.084955839    0.002        
     88000        2200   0.058846261    0              0.058846261    0.002        
     90000        2200   0.039604273    0              0.039604273    0.002        
     92000        2200   0.023096787    0              0.023096787    0.002        
     94000        2200   0.012913054    0              0.012913054    0.002        
     96000        2200   0.008246312    0              0.008246312    0.002        
     98000        2200   0.0046013695   0              0.0046013695   0.002        
    100000        2200   0.0025523031   0              0.0025523031   0.002        
Loop time of 15.0691 on 1 procs for 40000 steps with 2200 atoms

99.6% CPU use with 1 MPI tasks x 1 OpenMP threads

MPI task timing breakdown:
Section |  min time  |  avg time  |  max time  |%varavg| %total
---------------------------------------------------------------
Pair    | 6.1765     | 6.1765     | 6.1765     |   0.0 | 40.99
Neigh   | 0.67809    | 0.67809    | 0.67809    |   0.0 |  4.50
Comm    | 0.017452   | 0.017452   | 0.017452   |   0.0 |  0.12
Output  | 0.19339    | 0.19339    | 0.19339    |   0.0 |  1.28
Modify  | 7.6034     | 7.6034     | 7.6034     |   0.0 | 50.46
Other   |            | 0.4003     |            |       |  2.66

Nlocal:           2200 ave        2200 max        2200 min
Histogram: 1 0 0 0 0 0 0 0 0 0
Nghost:              0 ave           0 max           0 min
Histogram: 1 0 0 0 0 0 0 0 0 0
Neighs:          14782 ave       14782 max       14782 min
Histogram: 1 0 0 0 0 0 0 0 0 0

Total # of neighbors = 14782
Ave neighs/atom = 6.7190909
Neighbor list builds = 255
Dangerous builds = 0

# Normal timestep for main simulation
timestep        0.00001   # 10 microseconds
run             200000
Generated 0 of 0 mixed pair_coeff terms from geometric mixing rule
Per MPI rank memory allocation (min/avg/max) = 12.93 | 12.93 | 12.93 Mbytes
   Step        Atoms        KinEng         PotEng         TotEng         Volume    
    100000        2200   0.0025523031   0              0.0025523031   0.002        
    102000        2200   0.00095360413  0              0.00095360413  0.002        
    104000        2200   0.00038524951  0              0.00038524951  0.002        
    106000        2200   0.00028921026  0              0.00028921026  0.002        
    108000        2200   0.0001795526   0              0.0001795526   0.002        
    110000        2200   6.7549677e-05  0              6.7549677e-05  0.002        
    112000        2200   4.6715709e-05  0              4.6715709e-05  0.002        
    114000        2200   3.2427784e-05  0              3.2427784e-05  0.002        
    116000        2200   1.8069003e-05  0              1.8069003e-05  0.002        
    118000        2200   1.1104403e-05  0              1.1104403e-05  0.002        
    120000        2200   9.8209435e-06  0              9.8209435e-06  0.002        
    122000        2200   4.6380938e-06  0              4.6380938e-06  0.002        
    124000        2200   2.4118545e-06  0              2.4118545e-06  0.002        
    126000        2200   3.0740394e-06  0              3.0740394e-06  0.002        
    128000        2200   8.6640467e-07  0              8.6640467e-07  0.002        
    130000        2200   8.610874e-07   0              8.610874e-07   0.002        
    132000        2200   1.5534798e-06  0              1.5534798e-06  0.002        
    134000        2200   8.9007602e-08  0              8.9007602e-08  0.002        
    136000        2200   2.2242737e-07  0              2.2242737e-07  0.002        
    138000        2200   1.4853774e-07  0              1.4853774e-07  0.002        
    140000        2200   2.3827691e-07  0              2.3827691e-07  0.002        
    142000        2200   5.4718832e-09  0              5.4718832e-09  0.002        
    144000        2200   4.1749728e-09  0              4.1749728e-09  0.002        
    146000        2200   1.4028241e-08  0              1.4028241e-08  0.002        
    148000        2200   1.2330732e-09  0              1.2330732e-09  0.002        
    150000        2200   3.015267e-09   0              3.015267e-09   0.002        
    152000        2200   5.6513837e-10  0              5.6513837e-10  0.002        
    154000        2200   4.0463104e-10  0              4.0463104e-10  0.002        
    156000        2200   3.8752617e-10  0              3.8752617e-10  0.002        
    158000        2200   3.6171435e-10  0              3.6171435e-10  0.002        
    160000        2200   2.4012964e-10  0              2.4012964e-10  0.002        
    162000        2200   2.4198526e-10  0              2.4198526e-10  0.002        
    164000        2200   2.5351966e-10  0              2.5351966e-10  0.002        
    166000        2200   1.7140424e-10  0              1.7140424e-10  0.002        
    168000        2200   1.9590566e-10  0              1.9590566e-10  0.002        
    170000        2200   1.6206792e-10  0              1.6206792e-10  0.002        
    172000        2200   1.2295244e-10  0              1.2295244e-10  0.002        
    174000        2200   1.2583512e-10  0              1.2583512e-10  0.002        
    176000        2200   1.3776851e-10  0              1.3776851e-10  0.002        
    178000        2200   1.2715377e-10  0              1.2715377e-10  0.002        
    180000        2200   1.1645339e-10  0              1.1645339e-10  0.002        
    182000        2200   1.2189012e-10  0              1.2189012e-10  0.002        
    184000        2200   1.130777e-10   0              1.130777e-10   0.002        
    186000        2200   9.186824e-11   0              9.186824e-11   0.002        
    188000        2200   8.8636009e-11  0              8.8636009e-11  0.002        
    190000        2200   8.254485e-11   0              8.254485e-11   0.002        
    192000        2200   7.0174567e-11  0              7.0174567e-11  0.002        
    194000        2200   8.8425449e-11  0              8.8425449e-11  0.002        
    196000        2200   7.5410475e-11  0              7.5410475e-11  0.002        
    198000        2200   6.9201859e-11  0              6.9201859e-11  0.002        
    200000        2200   9.0017594e-11  0              9.0017594e-11  0.002        
    202000        2200   7.1191632e-11  0              7.1191632e-11  0.002        
    204000        2200   6.9786894e-11  0              6.9786894e-11  0.002        
    206000        2200   8.4395343e-11  0              8.4395343e-11  0.002        
    208000        2200   6.6915328e-11  0              6.6915328e-11  0.002        
    210000        2200   6.5973875e-11  0              6.5973875e-11  0.002        
    212000        2200   8.9081322e-11  0              8.9081322e-11  0.002        
    214000        2200   6.5881974e-11  0              6.5881974e-11  0.002        
    216000        2200   5.0887382e-11  0              5.0887382e-11  0.002        
    218000        2200   5.3421109e-11  0              5.3421109e-11  0.002        
    220000        2200   6.8786826e-11  0              6.8786826e-11  0.002        
    222000        2200   4.8719475e-11  0              4.8719475e-11  0.002        
    224000        2200   4.0060704e-11  0              4.0060704e-11  0.002        
    226000        2200   7.2557008e-11  0              7.2557008e-11  0.002        
    228000        2200   4.0019758e-11  0              4.0019758e-11  0.002        
    230000        2200   4.178643e-11   0              4.178643e-11   0.002        
    232000        2200   6.8026124e-11  0              6.8026124e-11  0.002        
    234000        2200   3.570997e-11   0              3.570997e-11   0.002        
    236000        2200   4.0445809e-11  0              4.0445809e-11  0.002        
    238000        2200   6.3992271e-11  0              6.3992271e-11  0.002        
    240000        2200   3.3335133e-11  0              3.3335133e-11  0.002        
    242000        2200   4.0622628e-11  0              4.0622628e-11  0.002        
    244000        2200   6.0414196e-11  0              6.0414196e-11  0.002        
    246000        2200   3.1541825e-11  0              3.1541825e-11  0.002        
    248000        2200   4.5804571e-11  0              4.5804571e-11  0.002        
    250000        2200   5.4659976e-11  0              5.4659976e-11  0.002        
    252000        2200   2.9334257e-11  0              2.9334257e-11  0.002        
    254000        2200   5.1799856e-11  0              5.1799856e-11  0.002        
    256000        2200   4.3482324e-11  0              4.3482324e-11  0.002        
    258000        2200   3.394503e-11   0              3.394503e-11   0.002        
    260000        2200   4.1564165e-11  0              4.1564165e-11  0.002        
    262000        2200   3.2059859e-11  0              3.2059859e-11  0.002        
    264000        2200   3.629303e-11   0              3.629303e-11   0.002        
    266000        2200   4.189384e-11   0              4.189384e-11   0.002        
    268000        2200   3.2308115e-11  0              3.2308115e-11  0.002        
    270000        2200   3.461287e-11   0              3.461287e-11   0.002        
    272000        2200   3.5773322e-11  0              3.5773322e-11  0.002        
    274000        2200   3.4254794e-11  0              3.4254794e-11  0.002        
    276000        2200   3.2172364e-11  0              3.2172364e-11  0.002        
    278000        2200   3.5159102e-11  0              3.5159102e-11  0.002        
    280000        2200   3.5150169e-11  0              3.5150169e-11  0.002        
    282000        2200   3.1913985e-11  0              3.1913985e-11  0.002        
    284000        2200   2.9071603e-11  0              2.9071603e-11  0.002        
    286000        2200   3.7192693e-11  0              3.7192693e-11  0.002        
    288000        2200   3.3164927e-11  0              3.3164927e-11  0.002        
    290000        2200   2.7939457e-11  0              2.7939457e-11  0.002        
    292000        2200   3.8340682e-11  0              3.8340682e-11  0.002        
    294000        2200   3.2955148e-11  0              3.2955148e-11  0.002        
    296000        2200   2.653416e-11   0              2.653416e-11   0.002        
    298000        2200   3.7821593e-11  0              3.7821593e-11  0.002        
    300000        2200   2.8446601e-11  0              2.8446601e-11  0.002        
Loop time of 130.971 on 1 procs for 200000 steps with 2200 atoms

99.9% CPU use with 1 MPI tasks x 1 OpenMP threads

MPI task timing breakdown:
Section |  min time  |  avg time  |  max time  |%varavg| %total
---------------------------------------------------------------
Pair    | 89.053     | 89.053     | 89.053     |   0.0 | 67.99
Neigh   | 0.30361    | 0.30361    | 0.30361    |   0.0 |  0.23
Comm    | 0.031632   | 0.031632   | 0.031632   |   0.0 |  0.02
Output  | 0.96486    | 0.96486    | 0.96486    |   0.0 |  0.74
Modify  | 38.74      | 38.74      | 38.74      |   0.0 | 29.58
Other   |            | 1.878      |            |       |  1.43

Nlocal:           2200 ave        2200 max        2200 min
Histogram: 1 0 0 0 0 0 0 0 0 0
Nghost:              0 ave           0 max           0 min
Histogram: 1 0 0 0 0 0 0 0 0 0
Neighs:          15540 ave       15540 max       15540 min
Histogram: 1 0 0 0 0 0 0 0 0 0

Total # of neighbors = 15540
Ave neighs/atom = 7.0636364
Neighbor list builds = 90
Dangerous builds = 0

# Write settled configuration
write_data      settled_before_impulse.data
System init for write_data ...
Generated 0 of 0 mixed pair_coeff terms from geometric mixing rule

# Apply impulse to all particles
# Give particles a sudden velocity impulse (like a shake or impact)
velocity        all set 0.5 0.0 1.0 units box

# Continue simulation to see response to impulse
run             100000
Generated 0 of 0 mixed pair_coeff terms from geometric mixing rule
Per MPI rank memory allocation (min/avg/max) = 12.93 | 12.93 | 12.93 Mbytes
   Step        Atoms        KinEng         PotEng         TotEng         Volume    
    300000        2200   0.22498385     0              0.22498385     0.002        
    302000        2200   0.13518092     0              0.13518092     0.002        
    304000        2200   0.085587097    0              0.085587097    0.002        
    306000        2200   0.050019437    0              0.050019437    0.002        
    308000        2200   0.027495198    0              0.027495198    0.002        
    310000        2200   0.0168088      0              0.0168088      0.002        
    312000        2200   0.01637326     0              0.01637326     0.002        
    314000        2200   0.02400221     0              0.02400221     0.002        
    316000        2200   0.030621603    0              0.030621603    0.002        
    318000        2200   0.031464671    0              0.031464671    0.002        
    320000        2200   0.032565736    0              0.032565736    0.002        
    322000        2200   0.03339466     0              0.03339466     0.002        
    324000        2200   0.03271445     0              0.03271445     0.002        
    326000        2200   0.029244211    0              0.029244211    0.002        
    328000        2200   0.021056418    0              0.021056418    0.002        
    330000        2200   0.012773491    0              0.012773491    0.002        
    332000        2200   0.006056444    0              0.006056444    0.002        
    334000        2200   0.0025690311   0              0.0025690311   0.002        
    336000        2200   0.000987149    0              0.000987149    0.002        
    338000        2200   0.00032279214  0              0.00032279214  0.002        
    340000        2200   0.00010617424  0              0.00010617424  0.002        
    342000        2200   4.3015069e-05  0              4.3015069e-05  0.002        
    344000        2200   1.9198024e-05  0              1.9198024e-05  0.002        
    346000        2200   8.7851629e-06  0              8.7851629e-06  0.002        
    348000        2200   3.9533574e-06  0              3.9533574e-06  0.002        
    350000        2200   2.9629164e-06  0              2.9629164e-06  0.002        
    352000        2200   1.6488755e-06  0              1.6488755e-06  0.002        
    354000        2200   1.6851231e-06  0              1.6851231e-06  0.002        
    356000        2200   5.5050505e-07  0              5.5050505e-07  0.002        
    358000        2200   5.9468765e-07  0              5.9468765e-07  0.002        
    360000        2200   1.4249209e-06  0              1.4249209e-06  0.002        
    362000        2200   4.5999854e-07  0              4.5999854e-07  0.002        
    364000        2200   2.8312395e-08  0              2.8312395e-08  0.002        
    366000        2200   1.4095817e-08  0              1.4095817e-08  0.002        
    368000        2200   8.1376857e-09  0              8.1376857e-09  0.002        
    370000        2200   6.8560158e-09  0              6.8560158e-09  0.002        
    372000        2200   1.6186715e-08  0              1.6186715e-08  0.002        
    374000        2200   2.8045439e-08  0              2.8045439e-08  0.002        
    376000        2200   5.9602133e-08  0              5.9602133e-08  0.002        
    378000        2200   6.4786548e-09  0              6.4786548e-09  0.002        
    380000        2200   1.3566044e-08  0              1.3566044e-08  0.002        
    382000        2200   5.2152946e-08  0              5.2152946e-08  0.002        
    384000        2200   3.4519715e-09  0              3.4519715e-09  0.002        
    386000        2200   2.0969273e-09  0              2.0969273e-09  0.002        
    388000        2200   1.886283e-09   0              1.886283e-09   0.002        
    390000        2200   1.8072857e-09  0              1.8072857e-09  0.002        
    392000        2200   1.696508e-09   0              1.696508e-09   0.002        
    394000        2200   1.5782322e-09  0              1.5782322e-09  0.002        
    396000        2200   1.682202e-09   0              1.682202e-09   0.002        
    398000        2200   1.2364877e-09  0              1.2364877e-09  0.002        
    400000        2200   1.2886868e-09  0              1.2886868e-09  0.002        
Loop time of 52.8317 on 1 procs for 100000 steps with 2200 atoms

100.0% CPU use with 1 MPI tasks x 1 OpenMP threads

MPI task timing breakdown:
Section |  min time  |  avg time  |  max time  |%varavg| %total
---------------------------------------------------------------
Pair    | 32.995     | 32.995     | 32.995     |   0.0 | 62.45
Neigh   | 0.89757    | 0.89757    | 0.89757    |   0.0 |  1.70
Comm    | 0.025468   | 0.025468   | 0.025468   |   0.0 |  0.05
Output  | 0.44548    | 0.44548    | 0.44548    |   0.0 |  0.84
Modify  | 17.575     | 17.575     | 17.575     |   0.0 | 33.27
Other   |            | 0.8931     |            |       |  1.69

Nlocal:           2200 ave        2200 max        2200 min
Histogram: 1 0 0 0 0 0 0 0 0 0
Nghost:              0 ave           0 max           0 min
Histogram: 1 0 0 0 0 0 0 0 0 0
Neighs:          15367 ave       15367 max       15367 min
Histogram: 1 0 0 0 0 0 0 0 0 0

Total # of neighbors = 15367
Ave neighs/atom = 6.985
Neighbor list builds = 272
Dangerous builds = 0

# Apply another impulse from a different direction
velocity        all set -0.3 0.4 0.5 units box
run             100000
Generated 0 of 0 mixed pair_coeff terms from geometric mixing rule
Per MPI rank memory allocation (min/avg/max) = 12.93 | 12.93 | 12.93 Mbytes
   Step        Atoms        KinEng         PotEng         TotEng         Volume    
    400000        2200   0.08999354     0              0.08999354     0.002        
    402000        2200   0.041540444    0              0.041540444    0.002        
    404000        2200   0.025412744    0              0.025412744    0.002        
    406000        2200   0.019317881    0              0.019317881    0.002        
    408000        2200   0.01386753     0              0.01386753     0.002        
    410000        2200   0.0039631949   0              0.0039631949   0.002        
    412000        2200   0.0025257024   0              0.0025257024   0.002        
    414000        2200   0.003344378    0              0.003344378    0.002        
    416000        2200   0.0038685139   0              0.0038685139   0.002        
    418000        2200   0.0040042929   0              0.0040042929   0.002        
    420000        2200   0.0040014047   0              0.0040014047   0.002        
    422000        2200   0.0037609529   0              0.0037609529   0.002        
    424000        2200   0.0031431191   0              0.0031431191   0.002        
    426000        2200   0.0022571582   0              0.0022571582   0.002        
    428000        2200   0.0012789383   0              0.0012789383   0.002        
    430000        2200   0.00067190136  0              0.00067190136  0.002        
    432000        2200   0.00032755913  0              0.00032755913  0.002        
    434000        2200   0.00012555111  0              0.00012555111  0.002        
    436000        2200   6.1895978e-05  0              6.1895978e-05  0.002        
    438000        2200   3.063485e-05   0              3.063485e-05   0.002        
    440000        2200   1.9174251e-05  0              1.9174251e-05  0.002        
    442000        2200   8.4163997e-06  0              8.4163997e-06  0.002        
    444000        2200   7.644688e-06   0              7.644688e-06   0.002        
    446000        2200   5.9060451e-06  0              5.9060451e-06  0.002        
    448000        2200   4.9401689e-06  0              4.9401689e-06  0.002        
    450000        2200   4.0558179e-06  0              4.0558179e-06  0.002        
    452000        2200   2.5903481e-06  0              2.5903481e-06  0.002        
    454000        2200   3.701275e-06   0              3.701275e-06   0.002        
    456000        2200   2.2941595e-06  0              2.2941595e-06  0.002        
    458000        2200   3.185914e-06   0              3.185914e-06   0.002        
    460000        2200   6.6506806e-07  0              6.6506806e-07  0.002        
    462000        2200   6.5288628e-07  0              6.5288628e-07  0.002        
    464000        2200   1.0782267e-06  0              1.0782267e-06  0.002        
    466000        2200   2.4127062e-07  0              2.4127062e-07  0.002        
    468000        2200   5.8753542e-08  0              5.8753542e-08  0.002        
    470000        2200   4.0061837e-09  0              4.0061837e-09  0.002        
    472000        2200   2.5643532e-09  0              2.5643532e-09  0.002        
    474000        2200   2.5524978e-09  0              2.5524978e-09  0.002        
    476000        2200   2.9646772e-09  0              2.9646772e-09  0.002        
    478000        2200   2.2247946e-09  0              2.2247946e-09  0.002        
    480000        2200   2.070283e-09   0              2.070283e-09   0.002        
    482000        2200   1.7717318e-09  0              1.7717318e-09  0.002        
    484000        2200   1.7498719e-09  0              1.7498719e-09  0.002        
    486000        2200   1.8375998e-09  0              1.8375998e-09  0.002        
    488000        2200   1.1684152e-09  0              1.1684152e-09  0.002        
    490000        2200   9.9709633e-10  0              9.9709633e-10  0.002        
    492000        2200   6.4401449e-10  0              6.4401449e-10  0.002        
    494000        2200   4.6324849e-10  0              4.6324849e-10  0.002        
    496000        2200   4.6518501e-10  0              4.6518501e-10  0.002        
    498000        2200   4.9546099e-10  0              4.9546099e-10  0.002        
    500000        2200   4.1142109e-10  0              4.1142109e-10  0.002        
Loop time of 56.0035 on 1 procs for 100000 steps with 2200 atoms

99.9% CPU use with 1 MPI tasks x 1 OpenMP threads

MPI task timing breakdown:
Section |  min time  |  avg time  |  max time  |%varavg| %total
---------------------------------------------------------------
Pair    | 36.396     | 36.396     | 36.396     |   0.0 | 64.99
Neigh   | 0.49278    | 0.49278    | 0.49278    |   0.0 |  0.88
Comm    | 0.024159   | 0.024159   | 0.024159   |   0.0 |  0.04
Output  | 0.46712    | 0.46712    | 0.46712    |   0.0 |  0.83
Modify  | 17.738     | 17.738     | 17.738     |   0.0 | 31.67
Other   |            | 0.8848     |            |       |  1.58

Nlocal:           2200 ave        2200 max        2200 min
Histogram: 1 0 0 0 0 0 0 0 0 0
Nghost:              0 ave           0 max           0 min
Histogram: 1 0 0 0 0 0 0 0 0 0
Neighs:          15526 ave       15526 max       15526 min
Histogram: 1 0 0 0 0 0 0 0 0 0

Total # of neighbors = 15526
Ave neighs/atom = 7.0572727
Neighbor list builds = 145
Dangerous builds = 0

# Let system settle again after impulses
run             100000
Generated 0 of 0 mixed pair_coeff terms from geometric mixing rule
Per MPI rank memory allocation (min/avg/max) = 12.93 | 12.93 | 12.93 Mbytes
   Step        Atoms        KinEng         PotEng         TotEng         Volume    
    500000        2200   4.1142109e-10  0              4.1142109e-10  0.002        
    502000        2200   2.7540545e-10  0              2.7540545e-10  0.002        
    504000        2200   2.6936491e-10  0              2.6936491e-10  0.002        
    506000        2200   2.8517834e-10  0              2.8517834e-10  0.002        
    508000        2200   2.6553905e-10  0              2.6553905e-10  0.002        
    510000        2200   2.6997276e-10  0              2.6997276e-10  0.002        
    512000        2200   2.2236279e-10  0              2.2236279e-10  0.002        
    514000        2200   2.4370995e-10  0              2.4370995e-10  0.002        
    516000        2200   2.0919174e-10  0              2.0919174e-10  0.002        
    518000        2200   1.5702503e-10  0              1.5702503e-10  0.002        
    520000        2200   2.2250355e-10  0              2.2250355e-10  0.002        
    522000        2200   1.8750015e-10  0              1.8750015e-10  0.002        
    524000        2200   1.3629785e-10  0              1.3629785e-10  0.002        
    526000        2200   2.1042566e-10  0              2.1042566e-10  0.002        
    528000        2200   1.5565674e-10  0              1.5565674e-10  0.002        
    530000        2200   1.3064847e-10  0              1.3064847e-10  0.002        
    532000        2200   1.8658956e-10  0              1.8658956e-10  0.002        
    534000        2200   1.3634596e-10  0              1.3634596e-10  0.002        
    536000        2200   1.2593613e-10  0              1.2593613e-10  0.002        
    538000        2200   1.7552214e-10  0              1.7552214e-10  0.002        
    540000        2200   1.2396037e-10  0              1.2396037e-10  0.002        
    542000        2200   1.1431807e-10  0              1.1431807e-10  0.002        
    544000        2200   1.5765026e-10  0              1.5765026e-10  0.002        
    546000        2200   1.1495897e-10  0              1.1495897e-10  0.002        
    548000        2200   1.1920432e-10  0              1.1920432e-10  0.002        
    550000        2200   1.4542335e-10  0              1.4542335e-10  0.002        
    552000        2200   9.7142197e-11  0              9.7142197e-11  0.002        
    554000        2200   1.153961e-10   0              1.153961e-10   0.002        
    556000        2200   1.213335e-10   0              1.213335e-10   0.002        
    558000        2200   1.0289013e-10  0              1.0289013e-10  0.002        
    560000        2200   1.2324561e-10  0              1.2324561e-10  0.002        
    562000        2200   1.1816138e-10  0              1.1816138e-10  0.002        
    564000        2200   9.5139872e-11  0              9.5139872e-11  0.002        
    566000        2200   1.314654e-10   0              1.314654e-10   0.002        
    568000        2200   1.1261447e-10  0              1.1261447e-10  0.002        
    570000        2200   8.3518705e-11  0              8.3518705e-11  0.002        
    572000        2200   1.3081708e-10  0              1.3081708e-10  0.002        
    574000        2200   1.1206689e-10  0              1.1206689e-10  0.002        
    576000        2200   8.2599716e-11  0              8.2599716e-11  0.002        
    578000        2200   1.3381004e-10  0              1.3381004e-10  0.002        
    580000        2200   1.0771108e-10  0              1.0771108e-10  0.002        
    582000        2200   8.3164504e-11  0              8.3164504e-11  0.002        
    584000        2200   1.2806653e-10  0              1.2806653e-10  0.002        
    586000        2200   1.0414104e-10  0              1.0414104e-10  0.002        
    588000        2200   6.1495657e-11  0              6.1495657e-11  0.002        
    590000        2200   1.0867723e-10  0              1.0867723e-10  0.002        
    592000        2200   1.0553143e-10  0              1.0553143e-10  0.002        
    594000        2200   6.019993e-11   0              6.019993e-11   0.002        
    596000        2200   1.0091978e-10  0              1.0091978e-10  0.002        
    598000        2200   9.1179967e-11  0              9.1179967e-11  0.002        
    600000        2200   6.2640867e-11  0              6.2640867e-11  0.002        
Loop time of 57.6369 on 1 procs for 100000 steps with 2200 atoms

99.8% CPU use with 1 MPI tasks x 1 OpenMP threads

MPI task timing breakdown:
Section |  min time  |  avg time  |  max time  |%varavg| %total
---------------------------------------------------------------
Pair    | 38.809     | 38.809     | 38.809     |   0.0 | 67.33
Neigh   | 0          | 0          | 0          |   0.0 |  0.00
Comm    | 0.011063   | 0.011063   | 0.011063   |   0.0 |  0.02
Output  | 0.45128    | 0.45128    | 0.45128    |   0.0 |  0.78
Modify  | 17.519     | 17.519     | 17.519     |   0.0 | 30.39
Other   |            | 0.847      |            |       |  1.47

Nlocal:           2200 ave        2200 max        2200 min
Histogram: 1 0 0 0 0 0 0 0 0 0
Nghost:              0 ave           0 max           0 min
Histogram: 1 0 0 0 0 0 0 0 0 0
Neighs:          15529 ave       15529 max       15529 min
Histogram: 1 0 0 0 0 0 0 0 0 0

Total # of neighbors = 15529
Ave neighs/atom = 7.0586364
Neighbor list builds = 0
Dangerous builds = 0

# Write final configuration after impulses
write_data      final_after_impulse.data
System init for write_data ...
Generated 0 of 0 mixed pair_coeff terms from geometric mixing rule
Total wall time: 0:05:30
