LAMMPS data file via write_data, version 7 Feb 2024, timestep = 300000, units = si

2200 atoms
1 atom types

0 0.1 xlo xhi
0 0.1 ylo yhi
0 0.2 zlo zhi

Atoms # sphere

2184 1 0.005 2500 0.0025562751445467914 0.0024994749000559822 0.002499424963065759 0 0 0
1752 1 0.005 2500 0.011915665713309341 0.00259678605167685 0.0024997046444739024 0 0 0
1678 1 0.005 2500 0.01934758049182872 0.0024992480777148965 0.0024997180623679937 0 0 0
1918 1 0.005 2500 0.024346604282492787 0.00249940308627328 0.0024994732685674746 0 0 0
1570 1 0.005 2500 0.02934551072516682 0.0025222238386031037 0.0024984708779517326 0 0 0
2122 1 0.005 2500 0.03434388104166676 0.002499743337017171 0.0024991527761599667 0 0 0
2179 1 0.005 2500 0.03934235102165168 0.0024984122042559617 0.0024990587558096854 0 0 0
1987 1 0.005 2500 0.04444521031206371 0.0024989601557436907 0.0024994471612823036 0 0 0
1930 1 0.005 2500 0.04944445835561509 0.0024981062054199575 0.0024993230309549837 0 0 0
1670 1 0.005 2500 0.05444349440988439 0.0024987639250221502 0.0024985199739482327 0 0 0
2005 1 0.005 2500 0.059442052764472744 0.002499105110663767 0.0024989518276614933 0 0 0
2043 1 0.005 2500 0.06609947153044037 0.0024997636327545323 0.0024994619876675846 0 0 0
1855 1 0.005 2500 0.07153590442893265 0.0024985001155800233 0.0024984798622179577 0 0 0
1144 1 0.005 2500 0.0798118268873849 0.002525360799996604 0.002499704644473902 0 0 0
2017 1 0.005 2500 0.08531287400391033 0.002552853464029836 0.002499174517239615 0 0 0
1901 1 0.005 2500 0.0903129130853327 0.002499106809555947 0.0024986073479477846 0 0 0
2038 1 0.005 2500 0.09578890607220025 0.0024986402374339582 0.002498789338492814 0 0 0
1607 1 0.005 2500 0.006835064546958161 0.007107656894276929 0.0024987163794278236 0 0 0
1699 1 0.005 2500 0.01568769163907666 0.005904228970054268 0.0024988679426991953 0 0 0
877 1 0.005 2500 0.024396951745571004 0.00749833937762456 0.0024996533386233556 0 0 0
1194 1 0.005 2500 0.031869267134204404 0.00684410706828613 0.0024994152568620334 0 0 0
2129 1 0.005 2500 0.03686887595861956 0.006843208670824377 0.0024997159119859967 0 0 0
1604 1 0.005 2500 0.04189243006945072 0.006796959197313485 0.00249931538144424 0 0 0
1687 1 0.005 2500 0.04975550289256208 0.007485984100786949 0.002498671387946882 0 0 0
1925 1 0.005 2500 0.06276960231868882 0.0062291191300548054 0.0024991964470710087 0 0 0
2052 1 0.005 2500 0.06928162118469414 0.006959254364835981 0.0024992450215855977 0 0 0
1602 1 0.005 2500 0.07545168549748296 0.005607518818146574 0.002498915361794266 0 0 0
1388 1 0.005 2500 0.08543667460580719 0.0075519063706177975 0.002499704644473902 0 0 0
1143 1 0.005 2500 0.09044295083671741 0.007730548403890333 0.002499704644473902 0 0 0
1755 1 0.005 2500 0.09545353168682577 0.00748598851960089 0.002498749513555244 0 0 0
1934 1 0.005 2500 0.0035181960264956194 0.010846761350612499 0.0024984227685264098 0 0 0
1564 1 0.005 2500 0.011563470870370306 0.008728740282009952 0.002499003721492719 0 0 0
1668 1 0.005 2500 0.01607223152822856 0.010888500713763254 0.0024992713255693874 0 0 0
1946 1 0.005 2500 0.02106026632064859 0.011221269088047454 0.002499142195514759 0 0 0
1393 1 0.005 2500 0.02842012486174299 0.010465835648567647 0.0024992218424246767 0 0 0
1950 1 0.005 2500 0.03824521339505856 0.011649577455049622 0.0024989406326279082 0 0 0
1931 1 0.005 2500 0.043245619145443025 0.011607798723037395 0.0024987638977991963 0 0 0
2200 1 0.005 2500 0.05323576176347728 0.01107344908882898 0.00249918292580645 0 0 0
2106 1 0.005 2500 0.05835090738860552 0.008879583500282893 0.0024987102869255913 0 0 0
1189 1 0.005 2500 0.06560580333727917 0.010345443441499524 0.0024987957741907933 0 0 0
1332 1 0.005 2500 0.07304962073503196 0.010244434802702559 0.0024994725341156484 0 0 0
1605 1 0.005 2500 0.07804811310543561 0.010124210038322765 0.0024983239954399603 0 0 0
2047 1 0.005 2500 0.0024985197566364083 0.01573896269522186 0.002499734405244673 0 0 0
1681 1 0.005 2500 0.009022905067966696 0.013034576963519293 0.0024989511255314283 0 0 0
1965 1 0.005 2500 0.013548673448778201 0.015203530715471376 0.0024996738936913523 0 0 0
1691 1 0.005 2500 0.022604402063684435 0.01597614215932653 0.0024987706353051626 0 0 0
1151 1 0.005 2500 0.027575037367958702 0.015412725285969583 0.0024991289843493527 0 0 0
1646 1 0.005 2500 0.03264976541100484 0.013131116350276237 0.0024987172039980556 0 0 0
1940 1 0.005 2500 0.046924870355163774 0.014992291684539473 0.0024995135493524816 0 0 0
2095 1 0.005 2500 0.05184537257278081 0.015875541910858593 0.002513134950322809 0 0 0
1886 1 0.005 2500 0.05669849223545118 0.014677377117840684 0.0024989105803918765 0 0 0
1803 1 0.005 2500 0.06144647723786234 0.013116779161064776 0.0024987422362934835 0 0 0
2097 1 0.005 2500 0.07017487014649187 0.014339461406905304 0.0024997046444739024 0 0 0
1360 1 0.005 2500 0.0752957000269976 0.014710326408590413 0.002498811947951517 0 0 0
805 1 0.005 2500 0.08029365533662731 0.014591291576538771 0.002498845010052289 0 0 0
1985 1 0.005 2500 0.08812121285054413 0.012572164931803593 0.0024991584185239707 0 0 0
1463 1 0.005 2500 0.09308967353630157 0.013125253840509657 0.0024985429352211807 0 0 0
1915 1 0.005 2500 0.007033477778306783 0.0178408177405252 0.002498581108805769 0 0 0
1062 1 0.005 2500 0.01162519891421112 0.019817030966184913 0.0024991186122045907 0 0 0
1526 1 0.005 2500 0.017899206887407433 0.017666054337642078 0.0024985475430920876 0 0 0
2066 1 0.005 2500 0.031816422198308075 0.018059640757715226 0.0024981991437416553 0 0 0
1611 1 0.005 2500 0.036509940972703187 0.016338369018036362 0.0024997173023513395 0 0 0
2025 1 0.005 2500 0.04150905332551044 0.016293816523195358 0.002499138744065105 0 0 0
1667 1 0.005 2500 0.04518634429954987 0.01967995371175164 0.0024987054985039594 0 0 0
2046 1 0.005 2500 0.05533583569747674 0.019486620617423435 0.0024993619403393236 0 0 0
2155 1 0.005 2500 0.0623343162401749 0.01803640237423488 0.002499733999738408 0 0 0
1615 1 0.005 2500 0.06791046964010095 0.018842743080175115 0.0024989263277282467 0 0 0
1471 1 0.005 2500 0.07290084198283792 0.019143120482440216 0.002499688700220378 0 0 0
2151 1 0.005 2500 0.07789755877906353 0.0189790316122412 0.0024987371153583487 0 0 0
985 1 0.005 2500 0.08494257446658882 0.01643093960185993 0.0024996681115039532 0 0 0
2159 1 0.005 2500 0.09241041411379992 0.01814067940705402 0.0024997046444739024 0 0 0
1682 1 0.005 2500 0.0971010577671062 0.016288842945365395 0.0024989330431572764 0 0 0
2076 1 0.005 2500 0.0024984925331169175 0.020736798549142052 0.0024992229596384574 0 0 0
2127 1 0.005 2500 0.006827906532944383 0.02323424367578861 0.0024987386208981505 0 0 0
2027 1 0.005 2500 0.015980525277594238 0.022296500718860957 0.0024997046444739024 0 0 0
880 1 0.005 2500 0.024352366170715817 0.020659581154399725 0.0024995617024866803 0 0 0
1916 1 0.005 2500 0.03506653796235435 0.021857867975044423 0.0024993482059768404 0 0 0
1793 1 0.005 2500 0.04000059535356114 0.021058727834213295 0.002499004942891564 0 0 0
1927 1 0.005 2500 0.05010698303515539 0.02056226631964834 0.002499572552948605 0 0 0
2113 1 0.005 2500 0.05954386866030238 0.022184925051961752 0.002498663467221513 0 0 0
1917 1 0.005 2500 0.06453163344229582 0.022526787251911946 0.002499378337696693 0 0 0
1789 1 0.005 2500 0.07944204746781207 0.023733749180301297 0.0024984510713961013 0 0 0
1216 1 0.005 2500 0.08380773196171679 0.021299825563866264 0.0024984993241396474 0 0 0
1591 1 0.005 2500 0.08879791995080408 0.021598417621520767 0.0024990764168753587 0 0 0
1578 1 0.005 2500 0.09750113346579742 0.021270951920630197 0.00249887456420917 0 0 0
1990 1 0.005 2500 0.0024990744909378936 0.025735524113431094 0.0024995426712602197 0 0 0
2120 1 0.005 2500 0.01156839546312808 0.024813717293249035 0.0026135745657515645 0 0 0
2130 1 0.005 2500 0.01590023959270779 0.027304168675689775 0.0024988677759671322 0 0 0
2150 1 0.005 2500 0.02057741185946447 0.02554010774870578 0.002498711385108748 0 0 0
1994 1 0.005 2500 0.027219933394540128 0.02475427066144917 0.002499149686710537 0 0 0
1774 1 0.005 2500 0.0320915634233903 0.025874812205525368 0.002499321726883224 0 0 0
2153 1 0.005 2500 0.03853454361119491 0.025838462240406066 0.002499404037641433 0 0 0
2186 1 0.005 2500 0.0436764977518385 0.02444563875475747 0.0024987382866242147 0 0 0
1362 1 0.005 2500 0.04859708968359442 0.025327786338554956 0.0024997428179923077 0 0 0
1677 1 0.005 2500 0.05357344034809105 0.02416449511953414 0.0024992944532743456 0 0 0
1436 1 0.005 2500 0.05698815842775121 0.02781604227204082 0.002498659512707903 0 0 0
2198 1 0.005 2500 0.0630500483414491 0.027300997527493643 0.002499592175985726 0 0 0
2196 1 0.005 2500 0.06799207918964999 0.026135348688251844 0.0024996412977529646 0 0 0
2164 1 0.005 2500 0.07270728955757198 0.02423451215861763 0.0024979995362790315 0 0 0
1179 1 0.005 2500 0.08379413806281882 0.026715282037526336 0.0024995658396292407 0 0 0
1818 1 0.005 2500 0.09021464449007123 0.026392658589821958 0.0024983151965460087 0 0 0
2001 1 0.005 2500 0.09750053784845103 0.026269342971734704 0.002498836252819804 0 0 0
1628 1 0.005 2500 0.002499320848035546 0.03073455472201462 0.0024996219984657116 0 0 0
997 1 0.005 2500 0.006828889207786597 0.02823410068125775 0.002499054636660012 0 0 0
989 1 0.005 2500 0.01157323890227852 0.029810402670780913 0.002498701481418101 0 0 0
849 1 0.005 2500 0.01970776744499048 0.0303264691504072 0.0036618186328865 0 0 0
1766 1 0.005 2500 0.02433525320663187 0.028836287051762822 0.002499338478638192 0 0 0
1110 1 0.005 2500 0.032446253591345064 0.03086111928861847 0.0024998330429494256 0 0 0
2086 1 0.005 2500 0.03744367943172376 0.030724432362586276 0.002498921588901722 0 0 0
1685 1 0.005 2500 0.04221280673852424 0.029224853062549117 0.0024991289467058615 0 0 0
1708 1 0.005 2500 0.0471336394323839 0.03010830773407131 0.002499312679432368 0 0 0
1017 1 0.005 2500 0.05206334868541778 0.028929781923423298 0.0024993162103463386 0 0 0
2131 1 0.005 2500 0.060354745517103355 0.03151111108981846 0.002499911138144034 0 0 0
2109 1 0.005 2500 0.06534884068548905 0.03174051227054477 0.0024987302319094875 0 0 0
1484 1 0.005 2500 0.07022402905398281 0.030609057242674587 0.0024992110336441416 0 0 0
1834 1 0.005 2500 0.07516877899686362 0.03134961163168521 0.0024990247584821 0 0 0
1538 1 0.005 2500 0.07996350166282533 0.02993056913553124 0.00249970464445118 0 0 0
1587 1 0.005 2500 0.08461615068992792 0.03197941023792106 0.0024988538140810752 0 0 0
1864 1 0.005 2500 0.09264164165954923 0.030647772550966155 0.0034972902944342367 0 0 0
1960 1 0.005 2500 0.09750080787676253 0.03126812368187496 0.00249855276144729 0 0 0
2037 1 0.005 2500 0.0024994803783810185 0.035733918862546135 0.002499291253229203 0 0 0
2181 1 0.005 2500 0.006829019228197348 0.03323351468613023 0.0024992349995393375 0 0 0
1747 1 0.005 2500 0.011573587412608177 0.03480839549173713 0.0024992985386643784 0 0 0
1996 1 0.005 2500 0.01651566418385034 0.033993234375290594 0.002498501681024627 0 0 0
1629 1 0.005 2500 0.02284688269134791 0.03403847388867322 0.0024987253432349186 0 0 0
1715 1 0.005 2500 0.02763181785600457 0.03259320797204732 0.0024987481227053596 0 0 0
1795 1 0.005 2500 0.03149197794561854 0.0357680768547431 0.002499451159885516 0 0 0
1813 1 0.005 2500 0.03648685698956771 0.035960417221554686 0.0024986936577237506 0 0 0
2169 1 0.005 2500 0.04112821793090182 0.0341041576288871 0.002499309415263476 0 0 0
1528 1 0.005 2500 0.04593072569945297 0.03549332133686971 0.0024997343474107907 0 0 0
1230 1 0.005 2500 0.05060115955105082 0.03371020509987464 0.0024991898299183417 0 0 0
2172 1 0.005 2500 0.055472462433097426 0.0325853495296462 0.0024990168838576665 0 0 0
1852 1 0.005 2500 0.07212612936924952 0.03531555202317415 0.0024990968355243807 0 0 0
1868 1 0.005 2500 0.07708225548736496 0.035968182283805945 0.0024981643676715887 0 0 0
2176 1 0.005 2500 0.08928594199636894 0.034216681316402195 0.0024989716839218744 0 0 0
194 1 0.005 2500 0.006829342448465521 0.038233068578504746 0.0024990699320937516 0 0 0
1675 1 0.005 2500 0.014738605198086532 0.03867706233826854 0.0024994174539029333 0 0 0
1542 1 0.005 2500 0.019676884843797048 0.03790326183517211 0.002498688559474944 0 0 0
1861 1 0.005 2500 0.02612471502794736 0.03781316031859856 0.002498823942093445 0 0 0
1897 1 0.005 2500 0.040434689630657286 0.039054616287839974 0.0024996970536063337 0 0 0
1835 1 0.005 2500 0.049907493567863837 0.03866076453145819 0.0024985648825741192 0 0 0
2152 1 0.005 2500 0.05725005296619453 0.037257293407825104 0.002498320264021197 0 0 0
1729 1 0.005 2500 0.062246170200317724 0.036138022763006324 0.002499179225949131 0 0 0
1999 1 0.005 2500 0.06723977585428542 0.036368104925793295 0.002499412734751824 0 0 0
2199 1 0.005 2500 0.08139980883728123 0.03848781186584287 0.0024993704147327654 0 0 0
1108 1 0.005 2500 0.09308290093832843 0.03860773977822666 0.002498100945564909 0 0 0
1712 1 0.005 2500 0.09750043810720621 0.03626697846097686 0.0024993397191707288 0 0 0
1989 1 0.005 2500 0.0024986949769713277 0.04073303941006939 0.0024988489275897747 0 0 0
2006 1 0.005 2500 0.006827568258357258 0.04323193985104797 0.002498774951468522 0 0 0
1882 1 0.005 2500 0.011799431446102984 0.04272040661829916 0.0024996093451982995 0 0 0
1172 1 0.005 2500 0.01677018056449497 0.04324435925726903 0.002499790267876186 0 0 0
1870 1 0.005 2500 0.0217077117457393 0.04247098921235622 0.0024996134260017624 0 0 0
2022 1 0.005 2500 0.026609411959995236 0.04344440506784789 0.002498666508799474 0 0 0
1660 1 0.005 2500 0.030798332887854992 0.040717793121985965 0.0025002282354901983 0 0 0
1651 1 0.005 2500 0.03579291349400623 0.04091145025182381 0.0024984573149055573 0 0 0
1889 1 0.005 2500 0.04523707205626151 0.04044433052939006 0.0024996373077038553 0 0 0
2160 1 0.005 2500 0.0491918066814068 0.043607849944568344 0.0024985422254161166 0 0 0
1661 1 0.005 2500 0.054205097098114954 0.04122442469783622 0.0024997046444739024 0 0 0
1776 1 0.005 2500 0.060686141168330876 0.040887002781311965 0.002499565196240369 0 0 0
1748 1 0.005 2500 0.06568007913387824 0.041117569301842155 0.002499696032760608 0 0 0
2069 1 0.005 2500 0.0705906250614624 0.04016795077444237 0.0024997046444739024 0 0 0
1784 1 0.005 2500 0.07622449122029878 0.040893017568559106 0.002499319071112982 0 0 0
1637 1 0.005 2500 0.08281386991129827 0.04328261651455853 0.002499631803540774 0 0 0
2067 1 0.005 2500 0.08730729482756358 0.040582438422502635 0.002499704644473902 0 0 0
2197 1 0.005 2500 0.09151982077687357 0.04335665683333111 0.002499725119320023 0 0 0
2014 1 0.005 2500 0.09749661947313333 0.04126617145828281 0.002499306794567337 0 0 0
1865 1 0.005 2500 0.0024990660326210472 0.04573277090873104 0.0024995397016493413 0 0 0
2021 1 0.005 2500 0.010693960570066179 0.04759549492436368 0.002499708416230425 0 0 0
1644 1 0.005 2500 0.020604571870159755 0.04734733063065325 0.002499033328525182 0 0 0
2091 1 0.005 2500 0.03106510536614321 0.045709495625790804 0.002498805249353428 0 0 0
1779 1 0.005 2500 0.035847676215706836 0.04716271578975513 0.0024995509388736313 0 0 0
2003 1 0.005 2500 0.039721325140331706 0.04400241341825851 0.002499574056163 0 0 0
1761 1 0.005 2500 0.04452278493425331 0.0453921293379323 0.00249830094975281 0 0 0
2013 1 0.005 2500 0.05775037453701487 0.04493349478259062 0.0024994450877656327 0 0 0
1693 1 0.005 2500 0.06298204358296246 0.04532659638441905 0.0024979443956744344 0 0 0
2084 1 0.005 2500 0.06797553060500133 0.04555859514953532 0.002498767868979207 0 0 0
1924 1 0.005 2500 0.0728846769731006 0.04461276417641792 0.0024988540959327518 0 0 0
2057 1 0.005 2500 0.07829231015558777 0.045444905018898245 0.0024988902739959823 0 0 0
2163 1 0.005 2500 0.08714603227938943 0.04577896605411594 0.002498726802020937 0 0 0
1997 1 0.005 2500 0.09748888196218986 0.04626560527854064 0.0024993316187829438 0 0 0
1719 1 0.005 2500 0.005996896950033794 0.04930449984964898 0.0024992874978936102 0 0 0
961 1 0.005 2500 0.015664989245969527 0.048119377699929786 0.0024985378109603175 0 0 0
1619 1 0.005 2500 0.023024641640661994 0.051971039479321926 0.0024991472814372504 0 0 0
1797 1 0.005 2500 0.026566191283828033 0.04844300667080466 0.002498820124327566 0 0 0
1972 1 0.005 2500 0.03207948828563776 0.050604408351623366 0.002498591432982269 0 0 0
1264 1 0.005 2500 0.040520883706767145 0.04893695378815018 0.0024993508905339955 0 0 0
1018 1 0.005 2500 0.04532228653006573 0.050326464580261396 0.002499087660814711 0 0 0
804 1 0.005 2500 0.050239034420845465 0.051226880687509795 0.002499620781342395 0 0 0
1900 1 0.005 2500 0.055096078335220774 0.05004592333916993 0.0024988138321291866 0 0 0
1168 1 0.005 2500 0.06004889817858837 0.04937324542381391 0.002499812215043308 0 0 0
1718 1 0.005 2500 0.065130223404267 0.04984093211497109 0.002499734712863765 0 0 0
1714 1 0.005 2500 0.07012460044787387 0.050072144952789284 0.002499562236452928 0 0 0
2125 1 0.005 2500 0.07505695740582513 0.049256408638818076 0.0024992976961152975 0 0 0
1979 1 0.005 2500 0.08263667692881833 0.04827843411122776 0.002498876168619545 0 0 0
1892 1 0.005 2500 0.08712371898632498 0.05077800218265826 0.00249932870621606 0 0 0
1963 1 0.005 2500 0.09149880078106648 0.04835624748704116 0.0024988893638656423 0 0 0
1773 1 0.005 2500 0.09749489548497231 0.05139464081276583 0.0024985838412408586 0 0 0
1733 1 0.005 2500 0.0024989224705812873 0.052874970606617576 0.002498882415561784 0 0 0
2004 1 0.005 2500 0.007509188733978094 0.05409861971313578 0.002499397801084299 0 0 0
1942 1 0.005 2500 0.01279360513639859 0.052277016876373546 0.002499704644473902 0 0 0
2103 1 0.005 2500 0.018054926562861832 0.052508617840237796 0.0024985905128231505 0 0 0
1336 1 0.005 2500 0.027852081915522294 0.053273965905104914 0.0024995743963585537 0 0 0
1943 1 0.005 2500 0.03298780030192817 0.055598001779652184 0.0024997046444739024 0 0 0
1846 1 0.005 2500 0.0368009350037222 0.052276653030190516 0.002499098353801265 0 0 0
1932 1 0.005 2500 0.04160333763565098 0.05381739324081102 0.0024995317896959303 0 0 0
1928 1 0.005 2500 0.046405787889314015 0.05520655317504316 0.002499171173904587 0 0 0
2028 1 0.005 2500 0.05618036249759536 0.054925978115602334 0.0024988009871146247 0 0 0
1037 1 0.005 2500 0.06113333775359234 0.05425221894274049 0.0024981615982829983 0 0 0
1701 1 0.005 2500 0.0661084969361132 0.054743718616206076 0.0024991959341381566 0 0 0
2073 1 0.005 2500 0.07110248010068694 0.054974674417979395 0.002499659434488358 0 0 0
1982 1 0.005 2500 0.07609005953686081 0.05532188462181968 0.0024992653074880837 0 0 0
2040 1 0.005 2500 0.0804121795525532 0.052755204480536916 0.0024983462110543496 0 0 0
2080 1 0.005 2500 0.08477707208587437 0.055192300200106306 0.002499085822580341 0 0 0
1921 1 0.005 2500 0.09110406701717041 0.054561081846368445 0.0024986108971408573 0 0 0
1689 1 0.005 2500 0.003722988896062301 0.05772217863926294 0.0024994880946120337 0 0 0
1684 1 0.005 2500 0.013166713558372985 0.057360623131369075 0.0024988662905907535 0 0 0
1891 1 0.005 2500 0.018163787283637378 0.05750539890983706 0.002499387575672341 0 0 0
2107 1 0.005 2500 0.023740683904423625 0.05691847338821182 0.0024991544250682024 0 0 0
925 1 0.005 2500 0.0285670034099967 0.05822178726257697 0.0024996723142635575 0 0 0
1871 1 0.005 2500 0.03796123208725823 0.057241949929901996 0.0024991078862827603 0 0 0
1128 1 0.005 2500 0.04274827881082735 0.05868408873740922 0.0024996983075074313 0 0 0
1878 1 0.005 2500 0.051323228512966064 0.05610692497416711 0.002498103619568327 0 0 0
2064 1 0.005 2500 0.05795148803329616 0.05960103845548865 0.002498944048751851 0 0 0
1368 1 0.005 2500 0.06290550936479943 0.05892580798079909 0.0024990217798467507 0 0 0
1696 1 0.005 2500 0.0678796925044633 0.05942914015649917 0.0024992584848075486 0 0 0
2188 1 0.005 2500 0.0729808329834553 0.05960734960680639 0.0024988443047635036 0 0 0
1606 1 0.005 2500 0.08048263414811553 0.057753777532129846 0.002498831717217245 0 0 0
1621 1 0.005 2500 0.08802825174545603 0.05898978295557685 0.002499284870947943 0 0 0
1673 1 0.005 2500 0.09302384897556604 0.05917679361414739 0.0024982272843203884 0 0 0
1636 1 0.005 2500 0.09717085133873235 0.05638366737848154 0.002499255695605597 0 0 0
2056 1 0.005 2500 0.002501668525818912 0.06257005649150976 0.002498628715010798 0 0 0
1697 1 0.005 2500 0.01010981412557754 0.061316514487273495 0.002499142962725593 0 0 0
1830 1 0.005 2500 0.01504195359303117 0.06213115422957397 0.002499174650271759 0 0 0
2032 1 0.005 2500 0.020040817518139655 0.06213753719663238 0.002499237650775255 0 0 0
1788 1 0.005 2500 0.02502443549163058 0.061750085023729646 0.0024986469119416977 0 0 0
2114 1 0.005 2500 0.031349197871799274 0.06237483169658373 0.0024991137346470913 0 0 0
1626 1 0.005 2500 0.03624257205092671 0.06341808453411915 0.0024986808023913505 0 0 0
1826 1 0.005 2500 0.04124143881624719 0.06345126012320353 0.002498704657011112 0 0 0
2126 1 0.005 2500 0.047542182865557045 0.0600634134794135 0.002831588125997124 0 0 0
2124 1 0.005 2500 0.052445591241661364 0.06097816055737089 0.00249935591857087 0 0 0
2009 1 0.005 2500 0.06495557555127388 0.06348467663972678 0.0024992251617615515 0 0 0
1377 1 0.005 2500 0.07803400989865915 0.062114204522558204 0.0024997046444739024 0 0 0
1974 1 0.005 2500 0.0834568577389866 0.0618010364498059 0.0024997046444739024 0 0 0
2085 1 0.005 2500 0.09750105499867175 0.061399306538109516 0.0024991342406592448 0 0 0
1939 1 0.005 2500 0.002499281615039212 0.06756879956075149 0.0024987573676577787 0 0 0
1723 1 0.005 2500 0.006848893169060403 0.06510514587793033 0.0024996554983919054 0 0 0
1683 1 0.005 2500 0.012850874130572995 0.06700280337397574 0.0024985141573744605 0 0 0
1849 1 0.005 2500 0.01783573360408628 0.0666234198576431 0.0024993912664114976 0 0 0
2123 1 0.005 2500 0.022823390819625217 0.06629049964299784 0.0024994109946708423 0 0 0
1959 1 0.005 2500 0.027807087128083694 0.06590332556125687 0.002499500995240249 0 0 0
1624 1 0.005 2500 0.03263279094000345 0.06720595160114512 0.0024985626408653558 0 0 0
1923 1 0.005 2500 0.046187649214296904 0.06486391046766482 0.002498110416586869 0 0 0
1799 1 0.005 2500 0.05135390343606246 0.06681298836617836 0.0024989646699400143 0 0 0
1851 1 0.005 2500 0.05619698135253327 0.06428176805300644 0.0024995342464764437 0 0 0
1807 1 0.005 2500 0.06079173580058093 0.06625171957629128 0.002498493411347748 0 0 0
1478 1 0.005 2500 0.06870704199227015 0.06678826138610648 0.0024985903491981133 0 0 0
1631 1 0.005 2500 0.0737644452471256 0.06668584497224513 0.002499704644472008 0 0 0
955 1 0.005 2500 0.07888542065106975 0.06704122798235167 0.002499507694953715 0 0 0
1446 1 0.005 2500 0.08387957366319762 0.06680675274390875 0.002499050531203409 0 0 0
1836 1 0.005 2500 0.0880258446068641 0.06401336012937746 0.0024987214837430237 0 0 0
1653 1 0.005 2500 0.09302268795558398 0.06417533325385134 0.0024989149583114455 0 0 0
1499 1 0.005 2500 0.0975005071103746 0.06639866785574194 0.0024993567650245384 0 0 0
1722 1 0.005 2500 0.00699994296086169 0.07010241188697594 0.0024992893584615205 0 0 0
1049 1 0.005 2500 0.015672782437327712 0.07112943222147351 0.0024992668673701965 0 0 0
1275 1 0.005 2500 0.02064612897793534 0.07164377330161921 0.0024993077277374455 0 0 0
1101 1 0.005 2500 0.02564291206942573 0.0704185381118495 0.0024982153056807726 0 0 0
2145 1 0.005 2500 0.03751843447167779 0.06826110968245275 0.0024996933563510996 0 0 0
1319 1 0.005 2500 0.042516676620240244 0.06828536824558679 0.0024995369232371717 0 0 0
2177 1 0.005 2500 0.04729927072503063 0.06973754571245902 0.0024991457257590114 0 0 0
1184 1 0.005 2500 0.05572327732830565 0.06925754501781349 0.0024989165925162708 0 0 0
1904 1 0.005 2500 0.06436410285609485 0.0697486945834064 0.0024993310213327026 0 0 0
1856 1 0.005 2500 0.07128411239227234 0.07107199968264678 0.0024994018610155658 0 0 0
1459 1 0.005 2500 0.07627188470774147 0.07140775190240164 0.002499060519239993 0 0 0
1841 1 0.005 2500 0.08127095873335036 0.07143535212236655 0.002498223051299837 0 0 0
1289 1 0.005 2500 0.08626629789697406 0.07119916224947369 0.002499257605083356 0 0 0
1912 1 0.005 2500 0.09069153567547869 0.06859760056860455 0.002499080717088773 0 0 0
1770 1 0.005 2500 0.09750059350148058 0.07139792000353334 0.0024990512830656876 0 0 0
848 1 0.005 2500 0.0026490822061560433 0.07256532286153741 0.002499112177524448 0 0 0
2035 1 0.005 2500 0.008417799270616528 0.07489705844200634 0.002499624676019874 0 0 0
1815 1 0.005 2500 0.013774013099869026 0.07575284449503114 0.002498719165578433 0 0 0
968 1 0.005 2500 0.02418611844072588 0.07520031631383324 0.0024993316699334868 0 0 0
1371 1 0.005 2500 0.02915051665840067 0.0739859963580203 0.002499704644473902 0 0 0
1759 1 0.005 2500 0.03377153291780668 0.07207388393503929 0.002499060126898994 0 0 0
2026 1 0.005 2500 0.038658560808918246 0.07312925613508876 0.002498726982236338 0 0 0
2191 1 0.005 2500 0.04365750767874931 0.07316236970204287 0.002499494374863505 0 0 0
977 1 0.005 2500 0.05166335047011081 0.0721740456499654 0.0024994993590481637 0 0 0
1832 1 0.005 2500 0.055681821843525194 0.07514681644925429 0.002499286602252968 0 0 0
1074 1 0.005 2500 0.05988316823859959 0.07202949152885375 0.0024994888926562595 0 0 0
1676 1 0.005 2500 0.06715798256824618 0.07389428627915354 0.0024991542340504205 0 0 0
1638 1 0.005 2500 0.07287922307001765 0.0758438067636545 0.002499171365454318 0 0 0
1810 1 0.005 2500 0.07891685699037784 0.0758459619697695 0.0024992497378206815 0 0 0
1433 1 0.005 2500 0.09280963891838936 0.07312584430114827 0.0024983463031936913 0 0 0
2112 1 0.005 2500 0.0024987775380328958 0.07756232447863391 0.0024980668348406217 0 0 0
2171 1 0.005 2500 0.010726851203957954 0.07971504415984007 0.0024991441150953855 0 0 0
1903 1 0.005 2500 0.018745864882365952 0.07626806105097704 0.002498577480217947 0 0 0
1686 1 0.005 2500 0.026599977345989657 0.07957795230210721 0.002498226429315506 0 0 0
1920 1 0.005 2500 0.03159908625889062 0.07951407949412768 0.0024993450563863405 0 0 0
407 1 0.005 2500 0.03615574671364736 0.07745700807831193 0.0024987175580136545 0 0 0
1823 1 0.005 2500 0.041154668167046514 0.07749028425155277 0.0024995678113025003 0 0 0
2016 1 0.005 2500 0.046142704653579086 0.07782106885139653 0.0024987670386261334 0 0 0
2156 1 0.005 2500 0.05109549924456803 0.07714075567382232 0.002499595948037101 0 0 0
2161 1 0.005 2500 0.05855530731460405 0.07923741725819824 0.0024996489524543716 0 0 0
1945 1 0.005 2500 0.06270067409284816 0.07615864501786865 0.0024984854763471375 0 0 0
1964 1 0.005 2500 0.0831197597373927 0.07855312324439673 0.002499110213159663 0 0 0
1720 1 0.005 2500 0.08884475516584467 0.07861099318059371 0.0024991606496696742 0 0 0
1702 1 0.005 2500 0.09749963725289654 0.07639755019230818 0.002499020071651752 0 0 0
1273 1 0.005 2500 0.003238957147127346 0.08250554607484036 0.0024985020657831603 0 0 0
1819 1 0.005 2500 0.015700504604951194 0.08037017654153919 0.0024990351441333 0 0 0
1695 1 0.005 2500 0.023939871738828333 0.08383718252599073 0.0024997046444739024 0 0 0
1725 1 0.005 2500 0.029025022249547543 0.08394943587576907 0.002498591784644543 0 0 0
1983 1 0.005 2500 0.03422897212332563 0.08376578636484866 0.002499454792311039 0 0 0
2140 1 0.005 2500 0.03888521578950967 0.08194501083773716 0.002499159153793439 0 0 0
941 1 0.005 2500 0.043746008222291514 0.08311430293425338 0.002498747608917213 0 0 0
1742 1 0.005 2500 0.04901768564085485 0.08191076285269154 0.002498983661283192 0 0 0
1911 1 0.005 2500 0.053970556185976376 0.0812303264165466 0.0024991204069205702 0 0 0
1315 1 0.005 2500 0.06318034167618296 0.08113371190080822 0.0024983734976199933 0 0 0
1837 1 0.005 2500 0.07057776641065934 0.08029374797182645 0.0024984219760820904 0 0 0
1822 1 0.005 2500 0.07557166089075976 0.08006559977794636 0.0024993121358907154 0 0 0
1674 1 0.005 2500 0.08097222308073644 0.08322681279187441 0.002498179851520526 0 0 0
1011 1 0.005 2500 0.08594109221115273 0.0826804266335102 0.002499407459932289 0 0 0
1592 1 0.005 2500 0.09265770742659873 0.08328531420685188 0.002498830658361716 0 0 0
2020 1 0.005 2500 0.09748263219619775 0.08139664252276538 0.0024984353822766776 0 0 0
507 1 0.005 2500 0.01264904093884873 0.08433025885860082 0.0024993822088045722 0 0 0
971 1 0.005 2500 0.018949674816832223 0.08417016737719918 0.002499142500500306 0 0 0
2054 1 0.005 2500 0.04730212063323565 0.08662800985895724 0.0024997321976484212 0 0 0
1848 1 0.005 2500 0.05228404632906408 0.08593614093273004 0.0024985672027398897 0 0 0
1937 1 0.005 2500 0.05720344830572912 0.08504354463668834 0.002498142072646003 0 0 0
1614 1 0.005 2500 0.062217199414784055 0.08603817676261828 0.0024985990923466813 0 0 0
2132 1 0.005 2500 0.06701607425741295 0.08433970334622595 0.002499480074063195 0 0 0
1633 1 0.005 2500 0.07195756012474713 0.0850993976117938 0.0024991350852304286 0 0 0
1389 1 0.005 2500 0.08400880841024347 0.08730837693341255 0.0024997046444739024 0 0 0
1768 1 0.005 2500 0.08896788800954733 0.08665900212265874 0.0024992195861451103 0 0 0
1030 1 0.005 2500 0.09750077545706182 0.08702117397276059 0.002499300193387321 0 0 0
1936 1 0.005 2500 0.0024989748717994375 0.09094138281037188 0.0024986139725404833 0 0 0
2115 1 0.005 2500 0.006587220079438554 0.0880643320981023 0.002499526177443926 0 0 0
1833 1 0.005 2500 0.016276932862648197 0.08839543910977724 0.002498575033602159 0 0 0
2092 1 0.005 2500 0.021573980934987424 0.08846994411481277 0.002499079758058312 0 0 0
1015 1 0.005 2500 0.026614848280560842 0.08832907907156255 0.0024991041105995914 0 0 0
953 1 0.005 2500 0.03164960601570911 0.08820455581091209 0.0024989158912516254 0 0 0
832 1 0.005 2500 0.03755363879077222 0.08805317854377555 0.0024983072390249426 0 0 0
954 1 0.005 2500 0.042650518310559875 0.08848686603319961 0.002499404889437321 0 0 0
2139 1 0.005 2500 0.05038765388135556 0.09056140798336806 0.002498763838202563 0 0 0
1727 1 0.005 2500 0.055374876679336 0.08986540800153017 0.002499708423578333 0 0 0
1357 1 0.005 2500 0.06031105378462098 0.09065875558082065 0.002499355886534826 0 0 0
1535 1 0.005 2500 0.06842469519278895 0.08913665014054015 0.0024996646374119197 0 0 0
2102 1 0.005 2500 0.07409792093278912 0.08961770737153339 0.002499324821314366 0 0 0
1154 1 0.005 2500 0.0791741083477715 0.08860349350856042 0.0024997046444739024 0 0 0
855 1 0.005 2500 0.09313047087301525 0.08928964704481984 0.0033614950280658924 0 0 0
2173 1 0.005 2500 0.0024995912523556674 0.09594092347106818 0.0024992700259729296 0 0 0
1825 1 0.005 2500 0.008533346752749377 0.09266922253045913 0.002498606274622226 0 0 0
1350 1 0.005 2500 0.013829814183329443 0.09275719469161824 0.0024991080552625735 0 0 0
1180 1 0.005 2500 0.0188661129891531 0.09265885458884879 0.002835419044932723 0 0 0
1258 1 0.005 2500 0.02440394615305291 0.09281248517395148 0.0024995279358840847 0 0 0
1746 1 0.005 2500 0.02943368597900959 0.0927742426122764 0.0024988401183007945 0 0 0
1209 1 0.005 2500 0.034736013849163756 0.09243694611339554 0.0024997046444738985 0 0 0
2051 1 0.005 2500 0.0397377947019036 0.0925507445286578 0.0024996392501858396 0 0 0
1734 1 0.005 2500 0.044893205292195676 0.0929551484939194 0.002498713276061915 0 0 0
1043 1 0.005 2500 0.057156805895923084 0.09453638069590986 0.002499109921120881 0 0 0
1406 1 0.005 2500 0.06488717808472413 0.09267177199039563 0.0024993164718949174 0 0 0
1225 1 0.005 2500 0.06971626151734936 0.09396644365799654 0.0024982926599020714 0 0 0
1977 1 0.005 2500 0.0773249353661297 0.09346239979098554 0.002497851921752528 0 0 0
1147 1 0.005 2500 0.08390113784527514 0.09260341884880675 0.002499200820163145 0 0 0
2024 1 0.005 2500 0.09049991246406101 0.09345168231847659 0.0024985440463021155 0 0 0
1975 1 0.005 2500 0.09750070018006665 0.09246443180331518 0.002498569297066052 0 0 0
1481 1 0.005 2500 0.007249753366515575 0.0975006609326781 0.002498722387351344 0 0 0
1081 1 0.005 2500 0.012249606374641044 0.09750038913740784 0.0024997019795154614 0 0 0
1713 1 0.005 2500 0.017670383634414324 0.09750107383887992 0.002498159330060113 0 0 0
1958 1 0.005 2500 0.022669681252500958 0.09750084941526142 0.0024992149609246728 0 0 0
1610 1 0.005 2500 0.027803712739543768 0.09750047826420394 0.0024991517701341876 0 0 0
1411 1 0.005 2500 0.032803236220152424 0.09750046652222824 0.002498549748273676 0 0 0
2149 1 0.005 2500 0.0378125907725777 0.09750014471949678 0.00249915626976772 0 0 0
2162 1 0.005 2500 0.042811970928848614 0.09750055088746629 0.0024994829967406335 0 0 0
1750 1 0.005 2500 0.048093435173080214 0.09740127307531243 0.0024992569800316184 0 0 0
2002 1 0.005 2500 0.05313276875229256 0.09750157270933749 0.0024982396032023598 0 0 0
1616 1 0.005 2500 0.06118224562978637 0.09750054176028107 0.002499037558663197 0 0 0
1791 1 0.005 2500 0.06618147469192877 0.09750086810999467 0.0024984692783064704 0 0 0
1948 1 0.005 2500 0.07325319557631006 0.09750018247011183 0.002499641048583356 0 0 0
999 1 0.005 2500 0.08131214376759559 0.09734692919423574 0.0024987570965638375 0 0 0
1787 1 0.005 2500 0.08710412812717885 0.09750048201822031 0.002498733181946462 0 0 0
1378 1 0.005 2500 0.09530987787171351 0.09706817012299278 0.002499383889919252 0 0 0
2158 1 0.005 2500 0.002509690754756109 0.0024985573016356446 0.0078019194435908126 0 0 0
1783 1 0.005 2500 0.007242431533632251 0.002498668069777751 0.004389054304671384 0 0 0
1161 1 0.005 2500 0.015930833823955274 0.002498566246845811 0.006149619603768369 0 0 0
1235 1 0.005 2500 0.02184730445618917 0.0025154355002599284 0.006829677707680675 0 0 0
1513 1 0.005 2500 0.026905962407070917 0.0024988816184247906 0.006860888361259399 0 0 0
1505 1 0.005 2500 0.03184893050249539 0.0035893326709561216 0.006692128635740872 0 0 0
1245 1 0.005 2500 0.03684301910769579 0.0024990880213550705 0.006829086615026148 0 0 0
1158 1 0.005 2500 0.04176360410934367 0.003967425165417969 0.006618507977361169 0 0 0
1160 1 0.005 2500 0.05003941819875727 0.0025081737961034694 0.007463229698401547 0 0 0
1863 1 0.005 2500 0.055038871510286434 0.0024995287502233123 0.007461678552267414 0 0 0
808 1 0.005 2500 0.06264161865869552 0.0024991707142728537 0.00633968583616647 0 0 0
1271 1 0.005 2500 0.06881882365045736 0.0024998109713778626 0.0066946719868413865 0 0 0
1643 1 0.005 2500 0.0747260667278088 0.0024994899308292016 0.006346659653166954 0 0 0
2166 1 0.005 2500 0.08390867720055606 0.0024993070366387737 0.007296726717176136 0 0 0
1879 1 0.005 2500 0.09750042741441997 0.0024989453599036306 0.007195824900570922 0 0 0
1157 1 0.005 2500 0.002499361245349589 0.006736334538960347 0.00515226877052709 0 0 0
911 1 0.005 2500 0.0073861332588871665 0.007347688743659964 0.007461997846569677 0 0 0
966 1 0.005 2500 0.012536806662454191 0.006134178298244406 0.006660088892040098 0 0 0
806 1 0.005 2500 0.02000269045174674 0.006916630573532108 0.00481231533188498 0 0 0
1552 1 0.005 2500 0.029407414018708777 0.007952736995598219 0.0067070050963333495 0 0 0
668 1 0.005 2500 0.03811224759383595 0.007308476706888343 0.007326303449751 0 0 0
2105 1 0.005 2500 0.046320440441371354 0.005822716817367456 0.005728726664660117 0 0 0
2058 1 0.005 2500 0.05404789540813536 0.00681505941861473 0.004988032614095571 0 0 0
1739 1 0.005 2500 0.05873379945265912 0.005661961131645796 0.0063051988381270406 0 0 0
1898 1 0.005 2500 0.06572891128019893 0.006426533401267973 0.006523633077376007 0 0 0
1731 1 0.005 2500 0.07253085746030297 0.007034459472500717 0.006297114304875025 0 0 0
1417 1 0.005 2500 0.07924843879847482 0.006430167046101623 0.005645422859612136 0 0 0
898 1 0.005 2500 0.08380298823330522 0.007496305494591619 0.007409168983099602 0 0 0
2061 1 0.005 2500 0.08798903609626811 0.0051141003544159435 0.006068715438677349 0 0 0
1698 1 0.005 2500 0.09305125351754895 0.004819468134630688 0.005978256167050035 0 0 0
995 1 0.005 2500 0.09750033010902524 0.007496902421414386 0.007106510036268143 0 0 0
1458 1 0.005 2500 0.012598627932108633 0.011952496806567335 0.006176215702530616 0 0 0
2083 1 0.005 2500 0.017118487389699684 0.010155587560193068 0.007332916225494148 0 0 0
1263 1 0.005 2500 0.022735015917362544 0.01089875469076303 0.0071981800965086485 0 0 0
1881 1 0.005 2500 0.033994854017480515 0.00979790272343982 0.005971749220319329 0 0 0
1786 1 0.005 2500 0.04272875591732349 0.009158626696769864 0.006826262271517614 0 0 0
1986 1 0.005 2500 0.04724531598811344 0.010722236654475551 0.0053627705419318295 0 0 0
1895 1 0.005 2500 0.05185864687019179 0.010675796732771553 0.007288970003750559 0 0 0
1760 1 0.005 2500 0.05670229006428916 0.011543408289083743 0.00639440662804963 0 0 0
918 1 0.005 2500 0.0617947894332528 0.009612955818167672 0.006048090737418925 0 0 0
1394 1 0.005 2500 0.06869734042854807 0.01044730703218346 0.006426410623033262 0 0 0
1422 1 0.005 2500 0.08372322909795864 0.011705144792702765 0.004712465737020743 0 0 0
800 1 0.005 2500 0.08805670520408368 0.010055787958024705 0.0068183275529142984 0 0 0
1546 1 0.005 2500 0.09309276424330128 0.00981197625769636 0.006242584889686638 0 0 0
1425 1 0.005 2500 0.09750107022997735 0.011658412883081778 0.004337085704371556 0 0 0
1448 1 0.005 2500 0.0024994081391092257 0.013185326740324264 0.006797940208775815 0 0 0
1293 1 0.005 2500 0.007411848808593348 0.012339547770885244 0.007179947664313827 0 0 0
1186 1 0.005 2500 0.01938308288084204 0.014403379194503888 0.005983335527558239 0 0 0
932 1 0.005 2500 0.025045986455225853 0.015314904260274164 0.006810180832065378 0 0 0
1008 1 0.005 2500 0.02963961821908211 0.013219505405822918 0.006489612191283644 0 0 0
28 1 0.005 2500 0.038056563197535226 0.01231015867371878 0.007450304755443976 0 0 0
1269 1 0.005 2500 0.044232579951001966 0.015709283302118154 0.006651006157935322 0 0 0
2189 1 0.005 2500 0.049370119857278356 0.014990772075899815 0.006860690987704538 0 0 0
1454 1 0.005 2500 0.061480258157127 0.014476932258925386 0.007308780530715157 0 0 0
1530 1 0.005 2500 0.06563677824030952 0.014897908254371407 0.00456272316111599 0 0 0
1223 1 0.005 2500 0.07283975121558207 0.013239799341970278 0.006597502565771144 0 0 0
938 1 0.005 2500 0.07779744586971322 0.01263515136838754 0.006812729285798804 0 0 0
2185 1 0.005 2500 0.0817794645043417 0.015637745698099583 0.007155654047242266 0 0 0
1048 1 0.005 2500 0.08819878302084772 0.015052395105754882 0.0068404519350776585 0 0 0
1656 1 0.005 2500 0.09317766624290724 0.015502097639327259 0.00689481091089502 0 0 0
1064 1 0.005 2500 0.0029722821090082652 0.01823829249792555 0.006803943791002043 0 0 0
1584 1 0.005 2500 0.010199594153804371 0.016337067052492486 0.006062893395722162 0 0 0
1777 1 0.005 2500 0.014728046462295549 0.018442091440232643 0.006284131215635237 0 0 0
1598 1 0.005 2500 0.034171841520074596 0.018340529436593134 0.006898040534600642 0 0 0
1109 1 0.005 2500 0.0390283616622851 0.017164207440672728 0.006750811550758556 0 0 0
2141 1 0.005 2500 0.047716595168008615 0.019708648747207555 0.0068096800391285 0 0 0
1009 1 0.005 2500 0.05265122204968985 0.018755235313826592 0.006652584108404773 0 0 0
2070 1 0.005 2500 0.057452781415133505 0.01736405601044635 0.006646311171551124 0 0 0
2012 1 0.005 2500 0.0656205527465779 0.019303004175788924 0.006925612434868885 0 0 0
1549 1 0.005 2500 0.07042909304542283 0.01761940310888336 0.00664019452431008 0 0 0
862 1 0.005 2500 0.07583992625723428 0.017234759467123575 0.006778906312212214 0 0 0
1333 1 0.005 2500 0.08532242060115089 0.019139771759388167 0.006743919942590201 0 0 0
2019 1 0.005 2500 0.09030006421429797 0.019588539374881375 0.006822499572767403 0 0 0
2187 1 0.005 2500 0.09749597134713116 0.0187643448343246 0.0068242751550353165 0 0 0
1581 1 0.005 2500 0.0031822789871557336 0.023234635489545036 0.006774850043875737 0 0 0
1133 1 0.005 2500 0.00740148780971844 0.020554741982787103 0.006680076754178647 0 0 0
658 1 0.005 2500 0.011970325807199391 0.022549627606262935 0.007051888586224582 0 0 0
534 1 0.005 2500 0.020134112197990845 0.021298526138567503 0.005105871545488204 0 0 0
988 1 0.005 2500 0.024358813262717365 0.02073609595147085 0.007718920076933455 0 0 0
1308 1 0.005 2500 0.028697085846827466 0.02084230192350163 0.005238056010236007 0 0 0
1620 1 0.005 2500 0.03279989495807611 0.02328845625864237 0.006719276366877579 0 0 0
1373 1 0.005 2500 0.037618771691239276 0.021960633532618318 0.006800550142738064 0 0 0
1126 1 0.005 2500 0.04265789154160064 0.020609327669379222 0.0067099742861775995 0 0 0
1814 1 0.005 2500 0.05100622705886271 0.02347450390080458 0.006733243640016739 0 0 0
1079 1 0.005 2500 0.05604157717500456 0.022424969298858233 0.006484065830092126 0 0 0
886 1 0.005 2500 0.06090418551401602 0.020945463342021364 0.007147478003057964 0 0 0
1617 1 0.005 2500 0.06926447515806036 0.022487105659912455 0.005672800941083229 0 0 0
1635 1 0.005 2500 0.07583411805701198 0.02213273532886492 0.00578275558671529 0 0 0
1072 1 0.005 2500 0.08060173549132948 0.020728625991112484 0.006321733743481953 0 0 0
1988 1 0.005 2500 0.09320554412687179 0.02290367090884032 0.004465088991323404 0 0 0
921 1 0.005 2500 0.09750039008783414 0.023816748794277955 0.006855753005635742 0 0 0
1226 1 0.005 2500 0.008140515498836777 0.025733885702414784 0.006624625156686339 0 0 0
1076 1 0.005 2500 0.013070300449967433 0.027407376168843624 0.0066188558208076734 0 0 0
2182 1 0.005 2500 0.018641926611750393 0.02671917583909824 0.006954833460704557 0 0 0
1472 1 0.005 2500 0.023796955471879367 0.02553358886903317 0.00632324839039707 0 0 0
896 1 0.005 2500 0.035323038213743316 0.027590258405846557 0.005906914056353173 0 0 0
1845 1 0.005 2500 0.041191407694551915 0.025457037133323774 0.006717563626385736 0 0 0
1914 1 0.005 2500 0.046103421677828625 0.024440684044764887 0.006868656424764073 0 0 0
853 1 0.005 2500 0.05429935247722793 0.0272352768105891 0.006672265135219033 0 0 0
1705 1 0.005 2500 0.05979757633995981 0.02569483315934697 0.006048234083651796 0 0 0
899 1 0.005 2500 0.06457471382799541 0.024607896869495903 0.007044627038098512 0 0 0
1197 1 0.005 2500 0.07155888634378071 0.027441702191784514 0.006156225509695451 0 0 0
1601 1 0.005 2500 0.07629833974309255 0.02697612874172864 0.0046387558980825324 0 0 0
612 1 0.005 2500 0.08127430706546664 0.02572474889567899 0.006702736280778779 0 0 0
1737 1 0.005 2500 0.08614723083975588 0.024011963630250276 0.005985883116178081 0 0 0
1655 1 0.005 2500 0.0909363811730159 0.026217421599999294 0.007441773895185233 0 0 0
950 1 0.005 2500 0.0024987746280169328 0.028186153248194897 0.00685709478457782 0 0 0
1585 1 0.005 2500 0.006800193896556462 0.030732184139073984 0.006829412947270737 0 0 0
585 1 0.005 2500 0.016399394022549064 0.0311728570382366 0.007312917920635331 0 0 0
157 1 0.005 2500 0.0228469421550636 0.030285923947941096 0.0075524675389847555 0 0 0
1208 1 0.005 2500 0.028900708946903247 0.028596864025565077 0.005220216484582594 0 0 0
1156 1 0.005 2500 0.039601829506502186 0.030199256437333337 0.006977312600917888 0 0 0
935 1 0.005 2500 0.0444993104181502 0.029198910083855785 0.006944403301349968 0 0 0
879 1 0.005 2500 0.04938959682413052 0.02820415061017963 0.006660636287538527 0 0 0
1050 1 0.005 2500 0.052680847547503934 0.03196633638338627 0.00669750704052411 0 0 0
1140 1 0.005 2500 0.057660483570067964 0.03156673755597159 0.006876704015443833 0 0 0
1415 1 0.005 2500 0.06682733709316113 0.029028180272791755 0.006428788068579727 0 0 0
2104 1 0.005 2500 0.07901494574251242 0.030129275679590072 0.007405893224215622 0 0 0
1692 1 0.005 2500 0.08712349042753877 0.02889312348611072 0.005527823239908426 0 0 0
1627 1 0.005 2500 0.09644890945125542 0.028768620758652004 0.006697921332453227 0 0 0
834 1 0.005 2500 0.0024993075944467823 0.03328020672593702 0.0068547714004792825 0 0 0
1893 1 0.005 2500 0.006943288636824339 0.03573361740182744 0.006826850885770471 0 0 0
1544 1 0.005 2500 0.011549713660495372 0.03228895147459636 0.006839994712928895 0 0 0
2062 1 0.005 2500 0.019767285899035963 0.03474568219983229 0.006372720622610642 0 0 0
1726 1 0.005 2500 0.025430588601883304 0.03458855604252161 0.006742912021610594 0 0 0
984 1 0.005 2500 0.03026661174486593 0.033320880981695264 0.006683875684994644 0 0 0
951 1 0.005 2500 0.03520354715898653 0.03254266577562063 0.006581977707211579 0 0 0
1876 1 0.005 2500 0.042917422202632435 0.033936553702142776 0.007164431158778849 0 0 0
903 1 0.005 2500 0.04778169568870295 0.03295441540529982 0.006557885496998661 0 0 0
1634 1 0.005 2500 0.061476968195867225 0.03460293170603056 0.007976452716349343 0 0 0
2090 1 0.005 2500 0.0663103748671207 0.034027609511316774 0.006838657184764504 0 0 0
1609 1 0.005 2500 0.07116766891634979 0.03284650944631671 0.006868932611952253 0 0 0
1506 1 0.005 2500 0.07600489465536021 0.03410013501697314 0.007007324826902055 0 0 0
1013 1 0.005 2500 0.08093212778017318 0.03413127637127515 0.005104034688419768 0 0 0
1976 1 0.005 2500 0.08828402532373379 0.033373823563981206 0.007415551920992367 0 0 0
1130 1 0.005 2500 0.09277347278666509 0.03503967682327023 0.005984715010592987 0 0 0
1981 1 0.005 2500 0.09750178816862978 0.03368699500731928 0.006873327513918052 0 0 0
1359 1 0.005 2500 0.002990548348772138 0.039418380856758 0.007296609275502781 0 0 0
1486 1 0.005 2500 0.010770623858251739 0.03869357022336802 0.005540336381310668 0 0 0
1485 1 0.005 2500 0.014860390385692795 0.03603268650392201 0.006750713907200763 0 0 0
1453 1 0.005 2500 0.028947279249977073 0.03814236597764955 0.00661155463277688 0 0 0
46 1 0.005 2500 0.03393024060624291 0.03812689478644355 0.006208825945710091 0 0 0
912 1 0.005 2500 0.038497806220616534 0.03627202701259348 0.0070642778064790475 0 0 0
1650 1 0.005 2500 0.04273147908261613 0.038927201457895605 0.006938751735704927 0 0 0
1782 1 0.005 2500 0.047729520253776046 0.03886024353609589 0.006993779512466047 0 0 0
2048 1 0.005 2500 0.05335669322139205 0.03679586336892868 0.005598617282650908 0 0 0
2079 1 0.005 2500 0.05826405886220371 0.03836509877100514 0.0072663968673666165 0 0 0
1488 1 0.005 2500 0.06314762475608687 0.03906162969239251 0.006452903288135407 0 0 0
1745 1 0.005 2500 0.06811850800851137 0.03868848575608094 0.006839717354843512 0 0 0
856 1 0.005 2500 0.07319775469622188 0.03832191778608992 0.006346347558797713 0 0 0
1498 1 0.005 2500 0.07817962162171734 0.03869503959170183 0.0065418824146501525 0 0 0
998 1 0.005 2500 0.08536907009046121 0.03640030349035599 0.0047077539448136555 0 0 0
1029 1 0.005 2500 0.0891983832465504 0.03828819783433781 0.007309231890615384 0 0 0
1641 1 0.005 2500 0.09750048692183018 0.03876413891141407 0.006830124031462262 0 0 0
2193 1 0.005 2500 0.019745765690148135 0.04045894000398653 0.006794610676910153 0 0 0
1662 1 0.005 2500 0.024707564406695023 0.04077198895916289 0.006270684924781147 0 0 0
1772 1 0.005 2500 0.029154872780704208 0.04313428996124114 0.006789725375249468 0 0 0
1890 1 0.005 2500 0.03404310037308445 0.04391497419552898 0.00609160512527835 0 0 0
1858 1 0.005 2500 0.03831273329398537 0.04126104219793631 0.006801354583811142 0 0 0
1645 1 0.005 2500 0.045172862332968744 0.043289335344069466 0.00698640654701496 0 0 0
2167 1 0.005 2500 0.050155193473634604 0.043221821360186034 0.007388410205900874 0 0 0
1363 1 0.005 2500 0.055045857279017875 0.04218868087833323 0.007333327083422845 0 0 0
1419 1 0.005 2500 0.05989784980882179 0.04327879049953095 0.006817751973218021 0 0 0
1248 1 0.005 2500 0.06498265270618546 0.0437001727989791 0.0067792420114152615 0 0 0
1850 1 0.005 2500 0.06996004519696189 0.04332403665730017 0.006506010867905444 0 0 0
983 1 0.005 2500 0.07493478912662614 0.04298228193722869 0.006854414303462052 0 0 0
2042 1 0.005 2500 0.07991654971388353 0.043378417474836645 0.00675098090649272 0 0 0
2050 1 0.005 2500 0.08423936864166644 0.04086959537512111 0.006640136287259781 0 0 0
2074 1 0.005 2500 0.08860861505545616 0.043299384361868365 0.006585025459495399 0 0 0
794 1 0.005 2500 0.09317287867974287 0.04126539649279745 0.006730220463529494 0 0 0
2194 1 0.005 2500 0.09750137747001117 0.043763769607652256 0.006830053166537558 0 0 0
1913 1 0.005 2500 0.0024999738901342965 0.044394058415429746 0.007316597463665737 0 0 0
91 1 0.005 2500 0.007656440272532889 0.046289350394947616 0.006364884975443084 0 0 0
1124 1 0.005 2500 0.014020750280699303 0.04522439156597663 0.00622608185711644 0 0 0
1262 1 0.005 2500 0.018943765426641532 0.045385140959969116 0.007083084692802605 0 0 0
1967 1 0.005 2500 0.02394838410912417 0.045921217397889534 0.005931290544641047 0 0 0
1971 1 0.005 2500 0.03838563494794872 0.04630787247282711 0.006730281790201941 0 0 0
1966 1 0.005 2500 0.04313959145958475 0.04785097701397011 0.0066245125996015385 0 0 0
1625 1 0.005 2500 0.0483610504305112 0.04760259144441999 0.00538717261522633 0 0 0
2081 1 0.005 2500 0.05322850457611446 0.04583209037472973 0.004433083282468131 0 0 0
803 1 0.005 2500 0.05731793717458041 0.04756005719778504 0.006731515152604696 0 0 0
1922 1 0.005 2500 0.0676072318483312 0.04798145047952332 0.00685587792532836 0 0 0
2049 1 0.005 2500 0.07257868018801027 0.04758303475270649 0.006507453742273992 0 0 0
1311 1 0.005 2500 0.0842477441765457 0.04586781019017284 0.006571208365209352 0 0 0
1139 1 0.005 2500 0.09319210871100275 0.04629528750060184 0.006727305035018899 0 0 0
2116 1 0.005 2500 0.002499702044651427 0.049376817178060986 0.006071357458435953 0 0 0
1198 1 0.005 2500 0.009354850814703936 0.05097114900708772 0.0059356245509172055 0 0 0
881 1 0.005 2500 0.015003564630826933 0.05006130183681198 0.007057779063959974 0 0 0
308 1 0.005 2500 0.019971509801531586 0.05024553626646168 0.006522676856455443 0 0 0
1842 1 0.005 2500 0.025303214633427263 0.0508725412780341 0.0068108897560094205 0 0 0
2168 1 0.005 2500 0.029702259588718236 0.048535188410151454 0.006390403184986392 0 0 0
1962 1 0.005 2500 0.034584794970835435 0.049565097337532615 0.00669842148861386 0 0 0
1956 1 0.005 2500 0.039300819084588094 0.0512228272271657 0.006774877447507834 0 0 0
1883 1 0.005 2500 0.05290466917453782 0.050116702907031574 0.006991371496513625 0 0 0
2108 1 0.005 2500 0.0625417808345731 0.0480912173264469 0.006639963113394251 0 0 0
1618 1 0.005 2500 0.07889335950161219 0.04923352036553397 0.005704722667659151 0 0 0
1665 1 0.005 2500 0.0839156659929872 0.05100394917880109 0.006489805171124278 0 0 0
1375 1 0.005 2500 0.08861478328240416 0.048299439246785696 0.006581855301148439 0 0 0
2089 1 0.005 2500 0.09316505499049375 0.05156047780494693 0.00595566950932478 0 0 0
1749 1 0.005 2500 0.09750044990736342 0.04883114074178945 0.006789998105079239 0 0 0
1056 1 0.005 2500 0.002499050048414129 0.05507847895385417 0.006985341659763208 0 0 0
1947 1 0.005 2500 0.011662478654327903 0.05531903856757408 0.006806943502069039 0 0 0
1476 1 0.005 2500 0.01663141350711875 0.05477644313928638 0.00672006528538302 0 0 0
1098 1 0.005 2500 0.021625605915411187 0.05496289092128241 0.006584898312530609 0 0 0
2008 1 0.005 2500 0.02680256313571585 0.0556420870213237 0.006775866725557948 0 0 0
1809 1 0.005 2500 0.031214241028089534 0.05329504239076321 0.006621092904384613 0 0 0
1439 1 0.005 2500 0.036051022208674746 0.05502021410294887 0.006609887920693692 0 0 0
1811 1 0.005 2500 0.04108738717794834 0.05588549499930272 0.007021933267854036 0 0 0
956 1 0.005 2500 0.044884094594642834 0.05252309937201488 0.006968264882172385 0 0 0
2170 1 0.005 2500 0.04967556594628632 0.053920772459386895 0.006680372397547595 0 0 0
1600 1 0.005 2500 0.05836195113467761 0.052423794770150633 0.0062369658288111834 0 0 0
897 1 0.005 2500 0.06370103780923848 0.05295446313471862 0.0065852366332938015 0 0 0
1732 1 0.005 2500 0.06869534822478394 0.052906008640391376 0.00636287569394061 0 0 0
1694 1 0.005 2500 0.07366830675600539 0.05252207635618113 0.006020979699028566 0 0 0
1902 1 0.005 2500 0.07832477191354821 0.05415859364227493 0.006817363987358801 0 0 0
1941 1 0.005 2500 0.08385159891742124 0.05592729427788396 0.007356464542403802 0 0 0
1622 1 0.005 2500 0.08851917747545587 0.05329716982012259 0.006585843534515436 0 0 0
1335 1 0.005 2500 0.09750036183725919 0.05389230610288806 0.006828781780269927 0 0 0
2143 1 0.005 2500 0.00771419669335073 0.05810276927424076 0.005486026977118259 0 0 0
2034 1 0.005 2500 0.018674965515487602 0.059321000675527376 0.007129315869290423 0 0 0
1408 1 0.005 2500 0.023656857687691036 0.059527778475635784 0.0067630060844307525 0 0 0
1792 1 0.005 2500 0.034451240228250274 0.05954564262835628 0.005212368969848411 0 0 0
2011 1 0.005 2500 0.04584151895159305 0.057429699148757486 0.006941020182547363 0 0 0
1709 1 0.005 2500 0.0506310945616586 0.05882819326645242 0.00663308357008454 0 0 0
1955 1 0.005 2500 0.05482641663272866 0.05615887243939409 0.007149974259153628 0 0 0
2134 1 0.005 2500 0.0599427338020596 0.057164257690984266 0.006382675444569535 0 0 0
1196 1 0.005 2500 0.06553492147977633 0.057621286644447406 0.006546622538865973 0 0 0
1762 1 0.005 2500 0.07046849522765322 0.05842387548261827 0.006656071059451879 0 0 0
1909 1 0.005 2500 0.07648765381830554 0.05888189186784801 0.005987004261572361 0 0 0
1649 1 0.005 2500 0.0929609205993176 0.05649765956188892 0.006716874856651351 0 0 0
1874 1 0.005 2500 0.09735608328274212 0.0588898763978887 0.006820830667578346 0 0 0
1102 1 0.005 2500 0.0024986258146753146 0.060074535871221454 0.006829414616455961 0 0 0
986 1 0.005 2500 0.012819634814642905 0.06025052479621554 0.006563307670890573 0 0 0
1246 1 0.005 2500 0.016369348834365787 0.06375604562380772 0.00703728105903556 0 0 0
1077 1 0.005 2500 0.028244939409521018 0.06146230004594411 0.006310588874421346 0 0 0
2071 1 0.005 2500 0.03588036585739286 0.06376983575889929 0.007471473060477289 0 0 0
895 1 0.005 2500 0.03935996999854226 0.06047458592986875 0.006047375759021494 0 0 0
1995 1 0.005 2500 0.04429464468259353 0.06212969733885935 0.006229738303669664 0 0 0
1812 1 0.005 2500 0.04958704737239377 0.0636709148115902 0.005963682181282872 0 0 0
1984 1 0.005 2500 0.055398095865650025 0.0610870837516442 0.006532258864039956 0 0 0
2072 1 0.005 2500 0.062394700180551446 0.06150570688405413 0.006750165897492647 0 0 0
1866 1 0.005 2500 0.06877936187339169 0.06305488678949828 0.005822874303721418 0 0 0
2053 1 0.005 2500 0.0737997429140049 0.06309763578926235 0.005982716699596696 0 0 0
1623 1 0.005 2500 0.0812497040129709 0.06016125973601045 0.006811697307269261 0 0 0
2154 1 0.005 2500 0.08624378978194001 0.06030156879661669 0.0069809803941209515 0 0 0
2118 1 0.005 2500 0.09222541801282565 0.06149408506426493 0.006855812777345911 0 0 0
1700 1 0.005 2500 0.09749967082552985 0.06389837668885812 0.006828943165931888 0 0 0
1894 1 0.005 2500 0.0030398776251120614 0.06506962624193963 0.006795158167680957 0 0 0
1875 1 0.005 2500 0.010361898226237459 0.06510713220562675 0.006396252965397546 0 0 0
1290 1 0.005 2500 0.021614951420863848 0.06409066139409966 0.00682306735211943 0 0 0
1887 1 0.005 2500 0.026208327779846597 0.06601935830960576 0.00723491534972791 0 0 0
2128 1 0.005 2500 0.03112542104937316 0.06528333806757107 0.007757098114890132 0 0 0
2044 1 0.005 2500 0.04059335055360246 0.0653850142402936 0.007062977829698141 0 0 0
2157 1 0.005 2500 0.04518914328366752 0.06732589917674406 0.006732346007911532 0 0 0
1111 1 0.005 2500 0.053852531492471004 0.06614778196201551 0.0067770167336923945 0 0 0
1707 1 0.005 2500 0.05867929765409419 0.06484925862065721 0.006805823841986361 0 0 0
1910 1 0.005 2500 0.0647976724799949 0.06588762888781673 0.006880044978373172 0 0 0
1704 1 0.005 2500 0.07124488453018943 0.0673217107500369 0.006771645965167608 0 0 0
1690 1 0.005 2500 0.07630716360447817 0.06735016829781566 0.006771786179321766 0 0 0
942 1 0.005 2500 0.08130699358437744 0.06514690112588442 0.00645053233238436 0 0 0
2142 1 0.005 2500 0.08847585361371942 0.06475273825304532 0.007421749748879225 0 0 0
2077 1 0.005 2500 0.09317319884142082 0.06640188110925946 0.006971569363080977 0 0 0
1957 1 0.005 2500 0.0024991598686863476 0.07006447830281118 0.006829645658951935 0 0 0
491 1 0.005 2500 0.0073505450921183945 0.06897967130186303 0.0073583064374628535 0 0 0
974 1 0.005 2500 0.011236902689564355 0.07145617299964974 0.004782369861011064 0 0 0
1027 1 0.005 2500 0.015012715805533455 0.06855836239670834 0.006735424183566941 0 0 0
1298 1 0.005 2500 0.022796156426169983 0.06960399939125908 0.006525336710839041 0 0 0
530 1 0.005 2500 0.029439520606944602 0.0694698715972402 0.005607944986227772 0 0 0
1801 1 0.005 2500 0.03455482136694869 0.06909388210848119 0.00670878944034833 0 0 0
927 1 0.005 2500 0.041086647240318436 0.07035345531525886 0.006820911333712291 0 0 0
1961 1 0.005 2500 0.0499372392140561 0.06925611048216104 0.006718095195890689 0 0 0
1642 1 0.005 2500 0.05650735915171519 0.07104854889787085 0.007099284603537332 0 0 0
1207 1 0.005 2500 0.061135092535073404 0.06926526895061044 0.006472728224181884 0 0 0
1877 1 0.005 2500 0.06750283204387476 0.07060318537859862 0.006295868543385344 0 0 0
870 1 0.005 2500 0.07375104446429617 0.07164665496692788 0.006809690445205567 0 0 0
2175 1 0.005 2500 0.08338838150572646 0.06968646065952984 0.006674301376326076 0 0 0
1573 1 0.005 2500 0.08838588398788515 0.06971184253575255 0.006792437813510942 0 0 0
1991 1 0.005 2500 0.09310889971425966 0.07139635659424055 0.007178967773126953 0 0 0
2138 1 0.005 2500 0.09750114685562562 0.0688986524618039 0.006828969879103393 0 0 0
1589 1 0.005 2500 0.0024985490125419628 0.07506336241384876 0.0068263640373923155 0 0 0
352 1 0.005 2500 0.015279442942938986 0.07355515956549721 0.006852864409710627 0 0 0
1312 1 0.005 2500 0.02124184858219497 0.07459489756165257 0.006494052373685022 0 0 0
1491 1 0.005 2500 0.02626943460820453 0.0732060782422851 0.0066006694209917015 0 0 0
1954 1 0.005 2500 0.03211896747302748 0.07344941697100979 0.00701187697309915 0 0 0
1820 1 0.005 2500 0.03711146636439386 0.07335580593655626 0.0072463939330609526 0 0 0
1608 1 0.005 2500 0.04305252997205316 0.07493873710178767 0.007133651690322532 0 0 0
2055 1 0.005 2500 0.047816779981360226 0.0739363303670355 0.005163203296169774 0 0 0
1410 1 0.005 2500 0.052242002272931874 0.07362844805055307 0.0074684566258385295 0 0 0
1785 1 0.005 2500 0.05883010173383607 0.07541573431473444 0.006373031406838141 0 0 0
825 1 0.005 2500 0.0635353228099935 0.07364272261742705 0.006736004827453315 0 0 0
2096 1 0.005 2500 0.06999714072215847 0.07493229363974634 0.006480965307794343 0 0 0
823 1 0.005 2500 0.07876862195772599 0.07206289093267136 0.006780353345306087 0 0 0
1926 1 0.005 2500 0.08386937779067287 0.07455872589616896 0.005410680122809897 0 0 0
1529 1 0.005 2500 0.08886518104997934 0.07444911555532448 0.00526906653088881 0 0 0
1908 1 0.005 2500 0.09749976803164265 0.07389796813462417 0.006828187170443052 0 0 0
1829 1 0.005 2500 0.006586045134661238 0.07873798776514561 0.005124422066374393 0 0 0
920 1 0.005 2500 0.010922495198999604 0.0766666679037206 0.00650101063607805 0 0 0
1129 1 0.005 2500 0.01708544843434237 0.0782167231642104 0.006792356013049285 0 0 0
943 1 0.005 2500 0.022141871421994464 0.07918338056340127 0.0047241818418496265 0 0 0
237 1 0.005 2500 0.02906993858725104 0.0773303182888903 0.006217748183961332 0 0 0
1469 1 0.005 2500 0.03395667554430465 0.07809796027509518 0.00694142590268162 0 0 0
1763 1 0.005 2500 0.038955339395964766 0.07799352014671948 0.006961249237504186 0 0 0
1753 1 0.005 2500 0.043550085517655275 0.0798366362165497 0.006267599223547999 0 0 0
2087 1 0.005 2500 0.048816347440582664 0.07892414254730525 0.006576753686896848 0 0 0
1953 1 0.005 2500 0.054296302516301805 0.0780425638456977 0.006335699002658554 0 0 0
1232 1 0.005 2500 0.06256698276213167 0.07844548125621367 0.0077316204514318206 0 0 0
845 1 0.005 2500 0.066605628581949 0.07830316338255096 0.004789347913838572 0 0 0
1414 1 0.005 2500 0.0758984133730139 0.07614808434300378 0.006472647816091963 0 0 0
1501 1 0.005 2500 0.07941002101559808 0.07970313779623944 0.005681313551626416 0 0 0
836 1 0.005 2500 0.08910268605729992 0.07892482739792485 0.007482121636467072 0 0 0
2078 1 0.005 2500 0.09311896137053052 0.07752379512842707 0.004853566307669185 0 0 0
1163 1 0.005 2500 0.09750073526249593 0.07889795505613058 0.006828723755963525 0 0 0
887 1 0.005 2500 0.0024997641312890354 0.0807974627473092 0.0071388513284464114 0 0 0
1301 1 0.005 2500 0.007874124120639297 0.08350131959638653 0.0040842112147283114 0 0 0
1456 1 0.005 2500 0.013057529206435383 0.08118426322521645 0.006670756149779132 0 0 0
1253 1 0.005 2500 0.020459503532533677 0.0832070674442359 0.00716644518461074 0 0 0
934 1 0.005 2500 0.026408151282502592 0.08241542422488515 0.006609022039171405 0 0 0
1769 1 0.005 2500 0.03156111723571384 0.08246723296227389 0.0065426352289120904 0 0 0
1492 1 0.005 2500 0.036547084765899414 0.08237401195704834 0.006897077833395241 0 0 0
1395 1 0.005 2500 0.05498164457363241 0.08365199603211633 0.0067547434368650005 0 0 0
1480 1 0.005 2500 0.06019492317024295 0.08309429996809459 0.0059965264707647625 0 0 0
2010 1 0.005 2500 0.06510158297698239 0.08266332202426421 0.006851366175090876 0 0 0
1929 1 0.005 2500 0.07030082328983732 0.0803159780402875 0.0074890953123062905 0 0 0
1386 1 0.005 2500 0.08446086581787472 0.08066244118476461 0.0068284929101801685 0 0 0
1862 1 0.005 2500 0.08855102899391058 0.08381679674053624 0.00660918582473222 0 0 0
2 1 0.005 2500 0.09311753730257193 0.08189527201683168 0.007278237339563407 0 0 0
1088 1 0.005 2500 0.0024992307470917676 0.08669049231790527 0.005128567373062428 0 0 0
1291 1 0.005 2500 0.010629765625373953 0.08541584049742411 0.007790246592244287 0 0 0
1361 1 0.005 2500 0.01596343477950928 0.08524053351064459 0.006363640735755877 0 0 0
1728 1 0.005 2500 0.024050230793824012 0.08682271866022716 0.006517119934730657 0 0 0
1586 1 0.005 2500 0.029097097401058626 0.08684144391255541 0.006576180968355497 0 0 0
1590 1 0.005 2500 0.03457179126334919 0.08693388078712498 0.006351541591358923 0 0 0
239 1 0.005 2500 0.040339787540985286 0.08546231027750621 0.005740673595381342 0 0 0
1808 1 0.005 2500 0.04505608981288765 0.08452815425429061 0.007111744210966328 0 0 0
1353 1 0.005 2500 0.050041567252718196 0.08441873388761927 0.006699955634600775 0 0 0
1603 1 0.005 2500 0.06941521349649542 0.0851880193179623 0.006802779194685154 0 0 0
1006 1 0.005 2500 0.07655542298177531 0.08459711044782967 0.004396480107815871 0 0 0
1199 1 0.005 2500 0.08145740524434722 0.08463434291622306 0.00726956928321717 0 0 0
2068 1 0.005 2500 0.0934122015616965 0.08686548021048764 0.007724334113787622 0 0 0
981 1 0.005 2500 0.09750173611194975 0.08420687267191615 0.006631553850496248 0 0 0
1658 1 0.005 2500 0.00717878269155826 0.08905896244800283 0.007363242114309704 0 0 0
1367 1 0.005 2500 0.011245375262672054 0.08882285436634031 0.004183795657189587 0 0 0
1233 1 0.005 2500 0.015098637729070257 0.09060075327933638 0.006826914730265211 0 0 0
873 1 0.005 2500 0.021910806319223628 0.09134343769508695 0.006576766669800793 0 0 0
1318 1 0.005 2500 0.03186146909427295 0.09112953684277941 0.006547145862290093 0 0 0
1503 1 0.005 2500 0.03880591274517837 0.09019652757270616 0.006836976827185424 0 0 0
1821 1 0.005 2500 0.04368392208706647 0.09127313383817212 0.007048717062410712 0 0 0
2135 1 0.005 2500 0.05321306118553195 0.08838434179766091 0.006757686170368799 0 0 0
2111 1 0.005 2500 0.05845066606093172 0.0880150577421947 0.006319069439526536 0 0 0
1869 1 0.005 2500 0.06405022389134495 0.08909994654055046 0.005998563531388168 0 0 0
553 1 0.005 2500 0.07668614405502981 0.08937707178967023 0.00676999091113373 0 0 0
1671 1 0.005 2500 0.08751891460186412 0.09055535730191941 0.005276173253644124 0 0 0
1123 1 0.005 2500 0.0050629466703941625 0.09338678000540103 0.0060246202223015926 0 0 0
1091 1 0.005 2500 0.011066346731756299 0.09413328715738657 0.006552156315306007 0 0 0
1229 1 0.005 2500 0.02691693858284741 0.09245427424370015 0.006806685187999709 0 0 0
1663 1 0.005 2500 0.030498683846024947 0.09593895264695754 0.006651195315716731 0 0 0
1794 1 0.005 2500 0.04031221041629167 0.09562363910449359 0.006401566899373022 0 0 0
888 1 0.005 2500 0.048243410608597076 0.09314341335348424 0.006203575361334965 0 0 0
947 1 0.005 2500 0.05324565736256358 0.09344457565320743 0.005415619008236127 0 0 0
1060 1 0.005 2500 0.060971857323866 0.09330301607679928 0.006690247705813585 0 0 0
1067 1 0.005 2500 0.06748180260172644 0.09265121342359048 0.006772434452192314 0 0 0
1073 1 0.005 2500 0.0734995962046132 0.09339916911718618 0.005714491160723374 0 0 0
1563 1 0.005 2500 0.08072941621507042 0.09393890660339889 0.006125315850369986 0 0 0
1561 1 0.005 2500 0.094070567569879 0.09344962449231234 0.0059979137625814005 0 0 0
1460 1 0.005 2500 0.0024993738820111603 0.09750075022315302 0.007248922155832235 0 0 0
293 1 0.005 2500 0.007492749728473226 0.09750125087425486 0.007491294162680732 0 0 0
1028 1 0.005 2500 0.015191348071734672 0.09694675525499409 0.006802498858783732 0 0 0
900 1 0.005 2500 0.020168610427802533 0.09749588305186452 0.006828211560227811 0 0 0
1933 1 0.005 2500 0.02523712132266818 0.09716310332054297 0.006775698951507192 0 0 0
958 1 0.005 2500 0.035306748283889716 0.0975002586966756 0.00682476891904149 0 0 0
1317 1 0.005 2500 0.04545396724243522 0.09750009084148187 0.006744134615107254 0 0 0
1765 1 0.005 2500 0.050614072495080834 0.09750115051416973 0.006815540845632052 0 0 0
1309 1 0.005 2500 0.05807786444654186 0.0975005012285712 0.00641799414819646 0 0 0
1652 1 0.005 2500 0.06368287360936277 0.09750101565952818 0.006827658730675766 0 0 0
1952 1 0.005 2500 0.06868870695136356 0.09750130035522757 0.006823107354072552 0 0 0
1716 1 0.005 2500 0.07728497784250306 0.09750027299074551 0.005456344583886869 0 0 0
1432 1 0.005 2500 0.08420629028185386 0.09750164633046485 0.006571697606019602 0 0 0
1885 1 0.005 2500 0.09121770939928944 0.09750155169808702 0.0053389485085296486 0 0 0
868 1 0.005 2500 0.09750027108027251 0.0969493360661805 0.006991888865982262 0 0 0
698 1 0.005 2500 0.007251424514419769 0.0024998255742528733 0.009388038783268954 0 0 0
640 1 0.005 2500 0.012840125457175071 0.002499742749276834 0.010079843812871438 0 0 0
2190 1 0.005 2500 0.02577921104043342 0.002499503062127505 0.011731297516525175 0 0 0
1840 1 0.005 2500 0.030777994688019148 0.002499491891450789 0.011452186846919917 0 0 0
2063 1 0.005 2500 0.03578322231166685 0.0024991827939844615 0.011715005623701672 0 0 0
755 1 0.005 2500 0.04076474648340697 0.0024992174161643705 0.011291799530874815 0 0 0
1527 1 0.005 2500 0.045511608712524694 0.0024995756816518894 0.009582906221989668 0 0 0
1210 1 0.005 2500 0.058698064960588714 0.0025000456827532777 0.010868292796539798 0 0 0
1205 1 0.005 2500 0.06368460884765872 0.002499362417253898 0.011228877100116356 0 0 0
1337 1 0.005 2500 0.06866223275248025 0.0024995803140582164 0.011691276156989762 0 0 0
1345 1 0.005 2500 0.0736397581337845 0.0024990720217001245 0.011225994326357729 0 0 0
1482 1 0.005 2500 0.07911982315873983 0.0024988039172685363 0.008730725644714166 0 0 0
1137 1 0.005 2500 0.08788405650548378 0.0024991030168720436 0.010327731072833933 0 0 0
1135 1 0.005 2500 0.09288287283564817 0.0024994548744321455 0.010402947048278386 0 0 0
422 1 0.005 2500 0.009631704448250714 0.006191003969620402 0.011776793652853888 0 0 0
1171 1 0.005 2500 0.016667314545539498 0.0058315800631660525 0.009801203231943926 0 0 0
1451 1 0.005 2500 0.0212757005134114 0.004631900100344217 0.011323418328877712 0 0 0
443 1 0.005 2500 0.02500986659948807 0.006724003779678661 0.008741583568948854 0 0 0
1754 1 0.005 2500 0.03389237989903351 0.0067788448033379725 0.009954898379006252 0 0 0
1340 1 0.005 2500 0.043396010383236 0.006748164068740356 0.011154925448430164 0 0 0
2146 1 0.005 2500 0.04899248103709251 0.007168411239716902 0.009734264770503027 0 0 0
1944 1 0.005 2500 0.053983507658309886 0.007013505810237649 0.00998268716084735 0 0 0
1148 1 0.005 2500 0.06123367623004005 0.006792236323902295 0.010483897581595732 0 0 0
1236 1 0.005 2500 0.06613313289903859 0.00686078338466606 0.011487920086540768 0 0 0
184 1 0.005 2500 0.07111672501586777 0.006812883736769212 0.011086992561585763 0 0 0
1802 1 0.005 2500 0.07621927988149804 0.006470768402000925 0.009623766431279504 0 0 0
1287 1 0.005 2500 0.09079932680699163 0.00712542987148306 0.009799080160659 0 0 0
439 1 0.005 2500 0.09745469810833081 0.0050751976320455 0.011480310546352212 0 0 0
1440 1 0.005 2500 0.002499848696705394 0.009033137598743203 0.009592441971158626 0 0 0
1374 1 0.005 2500 0.0075904634907723945 0.010754304660652463 0.011917790004961579 0 0 0
638 1 0.005 2500 0.01322175484450423 0.009398701167724618 0.010428090236667555 0 0 0
9 1 0.005 2500 0.030859379677615015 0.010695181418803967 0.010629003874763922 0 0 0
1804 1 0.005 2500 0.047091256903767365 0.01176379829493204 0.010249461288225114 0 0 0
815 1 0.005 2500 0.058312846290283334 0.01080762121388668 0.011069901056105398 0 0 0
1672 1 0.005 2500 0.06359506436101986 0.011198155209921363 0.010434508091264848 0 0 0
2121 1 0.005 2500 0.07119682419754275 0.011811433432662893 0.011098489761322206 0 0 0
965 1 0.005 2500 0.07615162997654577 0.011178791357848711 0.011302161003869608 0 0 0
1296 1 0.005 2500 0.08164540285338412 0.011358879720940055 0.009737304181042215 0 0 0
1407 1 0.005 2500 0.09524685005060025 0.009918164535721287 0.010854948044782077 0 0 0
1356 1 0.005 2500 0.0024988797175393533 0.015347449920601755 0.011305540965205915 0 0 0
1267 1 0.005 2500 0.011169455353437024 0.01395599823257285 0.010527660534848472 0 0 0
889 1 0.005 2500 0.015987196241770012 0.014931784679445075 0.009614376173353843 0 0 0
1358 1 0.005 2500 0.020712656331703203 0.013764491196284714 0.010760343118254767 0 0 0
550 1 0.005 2500 0.02631094715791407 0.012750717742246488 0.010910866146138478 0 0 0
1085 1 0.005 2500 0.033914670465414125 0.014633451963901489 0.010242188432179042 0 0 0
885 1 0.005 2500 0.04220455652232438 0.012817333360464254 0.010194284926114705 0 0 0
1735 1 0.005 2500 0.054076262602246204 0.014714983281016303 0.00922941537089657 0 0 0
1166 1 0.005 2500 0.058715400779323156 0.015850385937239572 0.01124072840783915 0 0 0
693 1 0.005 2500 0.06730080845447384 0.01433482657427225 0.009242866263363899 0 0 0
1404 1 0.005 2500 0.07835283311381361 0.015641383199620093 0.010796275028823769 0 0 0
1120 1 0.005 2500 0.08611212261365492 0.013215502852982702 0.010998041775858712 0 0 0
1022 1 0.005 2500 0.09096879471654122 0.012402813039236227 0.010136178540640552 0 0 0
1366 1 0.005 2500 0.09750126505014374 0.013885700581755023 0.008812416481291146 0 0 0
1405 1 0.005 2500 0.007090035512955665 0.016787127545983233 0.009950992575248103 0 0 0
266 1 0.005 2500 0.011893227799452085 0.01890176305411798 0.01046850402311634 0 0 0
2110 1 0.005 2500 0.019605935972186447 0.018350747533810566 0.009108411984908844 0 0 0
169 1 0.005 2500 0.02424938180053134 0.0172856116604752 0.011334861286624746 0 0 0
1462 1 0.005 2500 0.028986190611117697 0.017516811656448292 0.00895947538960392 0 0 0
773 1 0.005 2500 0.03693576794044729 0.018609022857901506 0.011055497030589022 0 0 0
1428 1 0.005 2500 0.04194171856550795 0.017776941166264337 0.010767138998304266 0 0 0
1775 1 0.005 2500 0.04682955367403208 0.01672576520848278 0.010800953158067464 0 0 0
2045 1 0.005 2500 0.05528734789630796 0.01949779668500126 0.01083513466143745 0 0 0
1294 1 0.005 2500 0.06351568272405847 0.017224514162642413 0.010955923416328372 0 0 0
798 1 0.005 2500 0.06841749868398007 0.018861063691848135 0.011046798983483173 0 0 0
1165 1 0.005 2500 0.07296256992450752 0.016479214548165224 0.010796624650031594 0 0 0
1580 1 0.005 2500 0.0828203757512938 0.0178033950580995 0.011539683660535604 0 0 0
1222 1 0.005 2500 0.08778054751635771 0.01792762537039657 0.01092430018962692 0 0 0
316 1 0.005 2500 0.09261291763649873 0.01688431789106614 0.011665876545404437 0 0 0
426 1 0.005 2500 0.0975009859447458 0.01792879069083003 0.01175298803643983 0 0 0
753 1 0.005 2500 0.0024993361578861248 0.023476449560010725 0.011721087644968946 0 0 0
1176 1 0.005 2500 0.007538829793690131 0.02266861488365295 0.011207850361554705 0 0 0
50 1 0.005 2500 0.01672377290442617 0.02240251953317838 0.008590911021627578 0 0 0
2000 1 0.005 2500 0.021250845186429515 0.023725629956608596 0.010247208248602535 0 0 0
1817 1 0.005 2500 0.027247011125733918 0.02126249069736182 0.011777854817588097 0 0 0
1214 1 0.005 2500 0.03234513142481234 0.020645873588450964 0.010940119291405922 0 0 0
894 1 0.005 2500 0.040558686216503284 0.02258130147646887 0.010796259166246264 0 0 0
996 1 0.005 2500 0.04544571730378036 0.021528846621131466 0.010878970056725296 0 0 0
1283 1 0.005 2500 0.05043902907649468 0.02071899269612452 0.010878691536200346 0 0 0
1938 1 0.005 2500 0.06470713764332094 0.022190519645225944 0.011418513762065853 0 0 0
281 1 0.005 2500 0.07243504098480817 0.02130773155481646 0.009354440563136623 0 0 0
622 1 0.005 2500 0.07748107594917024 0.020530806560505238 0.0102224237578552 0 0 0
520 1 0.005 2500 0.08351788953111129 0.02250053766593494 0.009975214075195896 0 0 0
1215 1 0.005 2500 0.08853510229318776 0.02281857318405445 0.010212607376515746 0 0 0
1555 1 0.005 2500 0.09364577166218478 0.022112408892030734 0.009547064768750406 0 0 0
1167 1 0.005 2500 0.005605997233878476 0.027246688908959687 0.010659378616000532 0 0 0
701 1 0.005 2500 0.0155389469863965 0.02667363310821252 0.01090367786062349 0 0 0
2075 1 0.005 2500 0.02507091991070327 0.026623990661077807 0.01166096743816329 0 0 0
910 1 0.005 2500 0.028300532097508532 0.024739738490347184 0.008343451206000971 0 0 0
1376 1 0.005 2500 0.035684980497073686 0.024584799673996776 0.010591286865468869 0 0 0
1575 1 0.005 2500 0.04391888718252478 0.02628849255075113 0.010967893520308452 0 0 0
260 1 0.005 2500 0.04895451044476738 0.025492998179345718 0.010838515968143152 0 0 0
1256 1 0.005 2500 0.053830233093922576 0.024390217793868876 0.010756269944068569 0 0 0
1070 1 0.005 2500 0.058740515841473495 0.025314949750293112 0.010919638005082487 0 0 0
922 1 0.005 2500 0.06450135960554826 0.02717931654571382 0.011667671499543581 0 0 0
2094 1 0.005 2500 0.0687362058987852 0.025368344879993857 0.009723762410018095 0 0 0
1099 1 0.005 2500 0.07560898636242293 0.02514863343537865 0.009763123955794486 0 0 0
2007 1 0.005 2500 0.0790985953246363 0.02799980946867938 0.0119276393991213 0 0 0
1980 1 0.005 2500 0.08554570735760304 0.027069283243108245 0.009906933168815885 0 0 0
1132 1 0.005 2500 0.09477546771523294 0.02677160680733748 0.010964128343710394 0 0 0
468 1 0.005 2500 0.002499188772718127 0.031100965030220744 0.011354146696605222 0 0 0
1588 1 0.005 2500 0.010264735103928528 0.029044340600679085 0.010419518159256331 0 0 0
739 1 0.005 2500 0.02017818416135326 0.028475957226862993 0.011376223704139238 0 0 0
1300 1 0.005 2500 0.02733956416799702 0.030633556022402704 0.009718168081642872 0 0 0
948 1 0.005 2500 0.03174136955083226 0.02829613257950321 0.009322943349524741 0 0 0
2137 1 0.005 2500 0.03637408058052933 0.029534700229130628 0.010736130857329291 0 0 0
2098 1 0.005 2500 0.04254941622882267 0.03108772189968198 0.011256346147733305 0 0 0
1474 1 0.005 2500 0.047470664674894636 0.03033052990877885 0.010802141820974196 0 0 0
1266 1 0.005 2500 0.052336576609238315 0.02918382065877089 0.010836542917498315 0 0 0
1757 1 0.005 2500 0.05868673244087435 0.030268596466655577 0.011594309595701083 0 0 0
1838 1 0.005 2500 0.0621313174470962 0.02964816188406025 0.008024040305994502 0 0 0
2033 1 0.005 2500 0.06891462751512839 0.030563589600303157 0.010704137300652963 0 0 0
212 1 0.005 2500 0.07441932164918531 0.029988378958772387 0.009368896099327348 0 0 0
1322 1 0.005 2500 0.0837553447465022 0.03144647377931747 0.008286248480390723 0 0 0
302 1 0.005 2500 0.08723596099828033 0.03137024008286778 0.011874726312340466 0 0 0
1973 1 0.005 2500 0.09237594377641327 0.03082557626002655 0.008740168929538224 0 0 0
1000 1 0.005 2500 0.0975004992203321 0.03096210492212654 0.011065008103611775 0 0 0
734 1 0.005 2500 0.007017581417942787 0.03323181348173301 0.011154097527551386 0 0 0
982 1 0.005 2500 0.02101842877366051 0.03339068219519005 0.011018723514882665 0 0 0
654 1 0.005 2500 0.028284761837202816 0.035431374132456006 0.01075993275851556 0 0 0
1305 1 0.005 2500 0.03275140965875138 0.03296906664974726 0.011007549694403812 0 0 0
1843 1 0.005 2500 0.03849142441328865 0.033996300165837934 0.011515214941094755 0 0 0
1798 1 0.005 2500 0.05042581900564424 0.03438092188309165 0.010553636795561802 0 0 0
1227 1 0.005 2500 0.05533722896378073 0.034906721134034306 0.009781754241956018 0 0 0
1252 1 0.005 2500 0.06374756688257599 0.03229025396311746 0.011948623094402944 0 0 0
1710 1 0.005 2500 0.06950249813226114 0.03571254834709006 0.01061156825971293 0 0 0
1465 1 0.005 2500 0.07791509509270961 0.032882773117532245 0.011464396272554132 0 0 0
608 1 0.005 2500 0.09259901391016863 0.035292102190876716 0.010974747722712673 0 0 0
1827 1 0.005 2500 0.002499914908420621 0.036087390427301205 0.010992301624206422 0 0 0
1993 1 0.005 2500 0.007034096128923858 0.039388804104027154 0.010236729103906505 0 0 0
449 1 0.005 2500 0.010878183268365397 0.03620435918100118 0.009875097697818745 0 0 0
1020 1 0.005 2500 0.017437732131559292 0.03687846925169735 0.01094974640681555 0 0 0
312 1 0.005 2500 0.022751227566318755 0.03794443558269118 0.009899622079546951 0 0 0
1873 1 0.005 2500 0.034925160915737066 0.03747077984237221 0.01106371843252589 0 0 0
1630 1 0.005 2500 0.03971302984685461 0.038908615907910414 0.011134340159636007 0 0 0
919 1 0.005 2500 0.0457384950455031 0.03611719650902217 0.010669193089979516 0 0 0
1816 1 0.005 2500 0.05188333260342127 0.03913905314275189 0.009761028202530279 0 0 0
844 1 0.005 2500 0.0647016688836771 0.03708103511653861 0.010883231775862902 0 0 0
366 1 0.005 2500 0.07439964099883324 0.036641789401051006 0.011000918579784707 0 0 0
1330 1 0.005 2500 0.08217345533052729 0.03698576580969061 0.009016121356271334 0 0 0
970 1 0.005 2500 0.08664607054997664 0.036282672260257325 0.011136141574533954 0 0 0
1781 1 0.005 2500 0.09750038692375751 0.03626170294591551 0.011158332044397591 0 0 0
1547 1 0.005 2500 0.0024991229598814928 0.04115159909013363 0.011960122345248557 0 0 0
1203 1 0.005 2500 0.010374498509962391 0.042688206822053036 0.008518859650382701 0 0 0
454 1 0.005 2500 0.014990653646339863 0.04078188313458114 0.008302875308588139 0 0 0
1477 1 0.005 2500 0.018662572705671253 0.04168506288473886 0.011572954526956005 0 0 0
1738 1 0.005 2500 0.023135774794422467 0.043440564358445864 0.010195096827638198 0 0 0
556 1 0.005 2500 0.027054553695705842 0.04037137705774169 0.010666486846571841 0 0 0
1195 1 0.005 2500 0.03193586883610821 0.041449728799318894 0.010587306513030439 0 0 0
412 1 0.005 2500 0.03631243248960178 0.043866293119585044 0.010569883990134005 0 0 0
1919 1 0.005 2500 0.04128051490157681 0.04354500697288151 0.010113064919831652 0 0 0
967 1 0.005 2500 0.047317002017611624 0.04183245531788996 0.011261783304645575 0 0 0
1970 1 0.005 2500 0.06152510351939355 0.04103877808943202 0.010980291109421095 0 0 0
1277 1 0.005 2500 0.0664711287533947 0.04174986174836527 0.011133982686640696 0 0 0
705 1 0.005 2500 0.07125188937936819 0.04048048442164753 0.010413860120985548 0 0 0
2183 1 0.005 2500 0.07772565262117358 0.0403962042503284 0.011221128512245427 0 0 0
661 1 0.005 2500 0.08239045520096683 0.04316852994918649 0.011089598512334486 0 0 0
673 1 0.005 2500 0.0870054542922639 0.041260510717821275 0.010858370138970367 0 0 0
1647 1 0.005 2500 0.09138213923620887 0.04367307231675161 0.010727987736116463 0 0 0
1297 1 0.005 2500 0.09578238751434741 0.040953957253638554 0.010983382524848607 0 0 0
1125 1 0.005 2500 0.006176931724939733 0.04429558952612326 0.010704106893511844 0 0 0
1907 1 0.005 2500 0.011211456480913252 0.04789538317982297 0.009492027320641847 0 0 0
2174 1 0.005 2500 0.014850831550056653 0.04489169670715856 0.011144947645912149 0 0 0
1083 1 0.005 2500 0.02722382798297413 0.0463174593356258 0.010125909547693572 0 0 0
1969 1 0.005 2500 0.03220499550460842 0.04670381018056861 0.010310706254434972 0 0 0
882 1 0.005 2500 0.04530494129391967 0.04640647254439773 0.010892747602335781 0 0 0
1654 1 0.005 2500 0.053347575105654646 0.0461026427806358 0.009938254519088335 0 0 0
1191 1 0.005 2500 0.05969114207436554 0.04615529715023927 0.010901611959668678 0 0 0
2192 1 0.005 2500 0.06468348725096937 0.04641510397732875 0.010965984186066287 0 0 0
1489 1 0.005 2500 0.06975250622529072 0.0458301491731803 0.010826571921607752 0 0 0
76 1 0.005 2500 0.07442635483117427 0.04412241729046927 0.011697363058303989 0 0 0
1998 1 0.005 2500 0.08118520418048226 0.04791829077279083 0.009948400666680563 0 0 0
1512 1 0.005 2500 0.0868810562219812 0.046257629679857686 0.010803270522392048 0 0 0
1402 1 0.005 2500 0.09631983658854919 0.04633031665527869 0.010954316913036177 0 0 0
1483 1 0.005 2500 0.006490715192106708 0.049578596972315814 0.009943928908766744 0 0 0
1244 1 0.005 2500 0.018497041267728297 0.05103707169937515 0.011233461526712995 0 0 0
1278 1 0.005 2500 0.02269198748256255 0.0484212511415771 0.010298910563493004 0 0 0
1743 1 0.005 2500 0.029259709975657227 0.05083224847323104 0.01080820615222528 0 0 0
1632 1 0.005 2500 0.0370449321892592 0.048794775533286885 0.010982143938083977 0 0 0
1796 1 0.005 2500 0.04188218263726542 0.05005696261908178 0.01093082995687317 0 0 0
2015 1 0.005 2500 0.048405946378253586 0.05014009127377317 0.009694420588438854 0 0 0
1169 1 0.005 2500 0.0563881139000015 0.04991410759568831 0.011043227160825408 0 0 0
1844 1 0.005 2500 0.06125016282898369 0.050958834307247555 0.010526296758007272 0 0 0
850 1 0.005 2500 0.06624636469993743 0.05113879907943414 0.010485019069469713 0 0 0
1400 1 0.005 2500 0.07120943649658644 0.050579720429231825 0.010267008243060616 0 0 0
1106 1 0.005 2500 0.07621093174248182 0.048407648205782056 0.009841834044645 0 0 0
241 1 0.005 2500 0.08658087368895227 0.05124690901993973 0.010712710655941836 0 0 0
671 1 0.005 2500 0.09136771793023747 0.048671991077058926 0.01073836890717627 0 0 0
1847 1 0.005 2500 0.09750090322473255 0.05128509121274506 0.011145563425451272 0 0 0
1857 1 0.005 2500 0.0024995336302910697 0.05233208924769793 0.011162245915992654 0 0 0
245 1 0.005 2500 0.00711001166609791 0.05440422116885059 0.00879416879662224 0 0 0
208 1 0.005 2500 0.011243792073329264 0.052835520841201994 0.011126208781850298 0 0 0
890 1 0.005 2500 0.015463969770210272 0.05548513306635484 0.011529277382464153 0 0 0
1426 1 0.005 2500 0.024318492341618977 0.05376486325492878 0.010768027025196273 0 0 0
1325 1 0.005 2500 0.03365724377777283 0.05411596174865654 0.010904338294201944 0 0 0
2093 1 0.005 2500 0.03865342214152848 0.05393119044543814 0.010927334974385984 0 0 0
2180 1 0.005 2500 0.04360289750172651 0.05473933777236442 0.01126207602412452 0 0 0
1496 1 0.005 2500 0.052643901729122415 0.05343033546660442 0.01072567009922117 0 0 0
915 1 0.005 2500 0.05791011479276273 0.05466946533433743 0.010792041090135082 0 0 0
2060 1 0.005 2500 0.06768976221256919 0.05591949950497227 0.010724423943571527 0 0 0
1518 1 0.005 2500 0.07260411617247993 0.05537189910196446 0.009989871119547536 0 0 0
1306 1 0.005 2500 0.07680663905563827 0.053099606015762614 0.0114604444532995 0 0 0
1949 1 0.005 2500 0.08173598072002583 0.052835180574427314 0.010666659788860682 0 0 0
33 1 0.005 2500 0.0929986048609813 0.053396291977559455 0.01063608948823946 0 0 0
1859 1 0.005 2500 0.003997305365491454 0.05770309337589806 0.010968082558405914 0 0 0
1495 1 0.005 2500 0.009749967690271302 0.058538330271650195 0.01011858778527918 0 0 0
1461 1 0.005 2500 0.02028967938951071 0.056709295466468884 0.01107483513426238 0 0 0
1420 1 0.005 2500 0.024863075802067716 0.05867483211904616 0.011539194604483704 0 0 0
123 1 0.005 2500 0.031035057865732067 0.0579298854610488 0.008485001336396365 0 0 0
926 1 0.005 2500 0.03641564941620945 0.0588838195140264 0.009762132096635597 0 0 0
1326 1 0.005 2500 0.04260311249738613 0.059506115220701976 0.01013401068721558 0 0 0
470 1 0.005 2500 0.04841314437357002 0.05607864010228497 0.01100965774255901 0 0 0
1497 1 0.005 2500 0.05326735321681371 0.059111313168097056 0.01087090664314817 0 0 0
1978 1 0.005 2500 0.05842722135559596 0.059630627297126385 0.010457986530599263 0 0 0
2148 1 0.005 2500 0.06270306816518043 0.056035031488272644 0.010394341918147412 0 0 0
2119 1 0.005 2500 0.07867751536103337 0.0577036643696302 0.01032400348664284 0 0 0
1541 1 0.005 2500 0.08341053476595675 0.05792497299044763 0.011918201017858869 0 0 0
1736 1 0.005 2500 0.08793243271114727 0.056790016693189706 0.010113016434295604 0 0 0
1153 1 0.005 2500 0.09316558788066001 0.05887531885075977 0.011109468743090788 0 0 0
2059 1 0.005 2500 0.09750040856199964 0.05638458483474792 0.011162158458883088 0 0 0
930 1 0.005 2500 0.002499937345181771 0.06259444149682356 0.011146718467547676 0 0 0
1582 1 0.005 2500 0.006808809051652425 0.06214287080647361 0.008287877011374326 0 0 0
73 1 0.005 2500 0.01074271066787969 0.06343115152183948 0.011089969652522758 0 0 0
1906 1 0.005 2500 0.01473033875391103 0.06041795620240847 0.011179793908695624 0 0 0
2178 1 0.005 2500 0.01926411097533511 0.06251103998491034 0.010942402362566234 0 0 0
1314 1 0.005 2500 0.0241452523010839 0.06360342101172861 0.01110741992701341 0 0 0
1040 1 0.005 2500 0.029319083496317042 0.06177285198715687 0.011183169916295024 0 0 0
940 1 0.005 2500 0.039064124036829254 0.06286671863823722 0.011218061886101655 0 0 0
476 1 0.005 2500 0.0475777143219612 0.06111817183163362 0.009861479658523683 0 0 0
1001 1 0.005 2500 0.055434694699257776 0.0636162103910708 0.010844609367540597 0 0 0
1155 1 0.005 2500 0.06114789617816239 0.06378686876524206 0.011020855114738581 0 0 0
1860 1 0.005 2500 0.06511055724598801 0.06039820839868262 0.010798359802108717 0 0 0
1193 1 0.005 2500 0.06941414179404866 0.06294260145962381 0.010795798896195296 0 0 0
2041 1 0.005 2500 0.07358332513111383 0.060272548846892524 0.010102249924627894 0 0 0
1162 1 0.005 2500 0.07773377777985516 0.0628743397197322 0.009106655864512429 0 0 0
1771 1 0.005 2500 0.08326700606742986 0.0627424495348254 0.010588091436313524 0 0 0
1449 1 0.005 2500 0.08872100747648566 0.06158582443959188 0.011281674399958348 0 0 0
2117 1 0.005 2500 0.09316677644511995 0.06387168629644549 0.0112832511009293 0 0 0
1562 1 0.005 2500 0.0975008216569073 0.061384192980361636 0.011150753458345321 0 0 0
349 1 0.005 2500 0.002499313517172725 0.06759367448956054 0.011175396375417356 0 0 0
842 1 0.005 2500 0.015281867346831367 0.06545930689356533 0.011610667229464003 0 0 0
481 1 0.005 2500 0.019171956497026403 0.0676424196365811 0.00935456372053927 0 0 0
1035 1 0.005 2500 0.028371433519407258 0.0666546344997061 0.011697180502430658 0 0 0
1249 1 0.005 2500 0.043833271776092655 0.06431855895930133 0.010718295413887068 0 0 0
1457 1 0.005 2500 0.0485130697391436 0.06601430422418085 0.010247242807590077 0 0 0
1437 1 0.005 2500 0.05298846239970918 0.06794501821523194 0.011360850958314987 0 0 0
1751 1 0.005 2500 0.05799039269119711 0.06791045343356819 0.0106973928538481 0 0 0
59 1 0.005 2500 0.06784401162973083 0.06767390080808064 0.010418378779119294 0 0 0
964 1 0.005 2500 0.07375091053010474 0.06545671342964261 0.010674035957308863 0 0 0
1044 1 0.005 2500 0.08544434794697617 0.06724222515125475 0.010519930463023007 0 0 0
863 1 0.005 2500 0.09750046729058945 0.06639820808787482 0.011158408401771786 0 0 0
1284 1 0.005 2500 0.011423184194633208 0.0684768849967558 0.010214271978132907 0 0 0
2133 1 0.005 2500 0.015749250813572462 0.07077268119879716 0.01121910297829403 0 0 0
822 1 0.005 2500 0.023775425042404735 0.06858444792224586 0.011320363797770211 0 0 0
1052 1 0.005 2500 0.02909470763060881 0.07144163034345932 0.010449411382383422 0 0 0
1595 1 0.005 2500 0.03316532836969387 0.06804106585610208 0.011393967743209742 0 0 0
2030 1 0.005 2500 0.03801945376914273 0.06828344985626067 0.010220465642517603 0 0 0
993 1 0.005 2500 0.04470987498172062 0.07070197404552177 0.010387569865038847 0 0 0
1730 1 0.005 2500 0.04956819828745932 0.07158566415293506 0.011165729173788264 0 0 0
1382 1 0.005 2500 0.06294733808598207 0.06845101165618311 0.011060419843520821 0 0 0
261 1 0.005 2500 0.07206197000207999 0.07021240860364171 0.011291428839710616 0 0 0
909 1 0.005 2500 0.07991315539415889 0.06845988462324344 0.010052081015598084 0 0 0
827 1 0.005 2500 0.09075015157550906 0.06823460489336682 0.01094185720829615 0 0 0
1507 1 0.005 2500 0.09633459034636682 0.07139814084647657 0.010998354326444968 0 0 0
1387 1 0.005 2500 0.003012828070227633 0.07256685432444328 0.011127071277670281 0 0 0
1558 1 0.005 2500 0.007145982856118201 0.07389502869336266 0.008246410972703979 0 0 0
295 1 0.005 2500 0.011678893531685587 0.07353195411397899 0.010321568947958978 0 0 0
1089 1 0.005 2500 0.02048908876705101 0.07232654371302942 0.010884813478144217 0 0 0
1688 1 0.005 2500 0.03440393091740636 0.07288418567197807 0.011422235368881121 0 0 0
1238 1 0.005 2500 0.04023452152954528 0.07280878946869461 0.011110819187251545 0 0 0
2031 1 0.005 2500 0.04516004372323258 0.07552376201396165 0.011629668220969325 0 0 0
1806 1 0.005 2500 0.05489391152187098 0.07256127535844867 0.01158276266834488 0 0 0
841 1 0.005 2500 0.06013526539716743 0.07249912881887463 0.010218566571822227 0 0 0
1276 1 0.005 2500 0.06608668430756483 0.07233532505998595 0.010830717366069414 0 0 0
1475 1 0.005 2500 0.07618776993807215 0.07301738818421859 0.010954165941076517 0 0 0
1288 1 0.005 2500 0.0857858982848327 0.07285849700183342 0.00970425720251809 0 0 0
1566 1 0.005 2500 0.09047310060469102 0.07457158770178661 0.010000939849511278 0 0 0
1867 1 0.005 2500 0.0024994688129448945 0.07755952181252748 0.011157017345914374 0 0 0
1441 1 0.005 2500 0.011631155901836629 0.07893276250134551 0.010900413266800819 0 0 0
1519 1 0.005 2500 0.01592313145578202 0.07604317921443109 0.011141504959018424 0 0 0
441 1 0.005 2500 0.02024421857276829 0.078511117013615 0.010656254409130577 0 0 0
388 1 0.005 2500 0.024712061943152345 0.07748608290315949 0.008661688524576095 0 0 0
1493 1 0.005 2500 0.030911234964721788 0.07649310022705293 0.010789563735680487 0 0 0
535 1 0.005 2500 0.035689425047517 0.07771143609868454 0.011614178573910349 0 0 0
663 1 0.005 2500 0.04068784591757579 0.07775692021103403 0.011664915275603557 0 0 0
871 1 0.005 2500 0.04998604136967844 0.07655629237751513 0.0108342717234502 0 0 0
1579 1 0.005 2500 0.057995291371134065 0.07989345727601299 0.00914345590962356 0 0 0
1090 1 0.005 2500 0.06694485119980084 0.07714392579096925 0.009765303717169736 0 0 0
1220 1 0.005 2500 0.07198245080805984 0.07683314565088094 0.010656805278806436 0 0 0
1270 1 0.005 2500 0.08069954356044255 0.07613794636225601 0.00893925386152904 0 0 0
1211 1 0.005 2500 0.08550768772286649 0.07774000762251389 0.010747533691075482 0 0 0
1342 1 0.005 2500 0.09306797184553481 0.07869578573806693 0.011118878985122808 0 0 0
840 1 0.005 2500 0.09750133004046617 0.07638715670864031 0.011163207167702313 0 0 0
1380 1 0.005 2500 0.006922480694452713 0.08102300378877905 0.009557815399527473 0 0 0
1510 1 0.005 2500 0.016631594000602642 0.08192431082920205 0.010114984122770163 0 0 0
636 1 0.005 2500 0.0290222160723411 0.08386794310377989 0.010614696654774646 0 0 0
1572 1 0.005 2500 0.0337443159564833 0.08228067374464122 0.011036025989735644 0 0 0
2039 1 0.005 2500 0.04075522973745458 0.0823074708097742 0.009595879732977089 0 0 0
681 1 0.005 2500 0.0452120085631895 0.08048256963783063 0.010937313932145363 0 0 0
1800 1 0.005 2500 0.051968727533635385 0.08103465723793603 0.009833246163112097 0 0 0
1525 1 0.005 2500 0.055653244895037646 0.08384794415618474 0.011704817964724487 0 0 0
52 1 0.005 2500 0.06694679062882423 0.08185897279329121 0.011427090323411925 0 0 0
298 1 0.005 2500 0.07191497447527952 0.08180106439833695 0.011980692403018078 0 0 0
858 1 0.005 2500 0.07534407103348517 0.08072202804710445 0.008411524610185803 0 0 0
410 1 0.005 2500 0.07989032694726046 0.0811141746208234 0.010453666990770306 0 0 0
564 1 0.005 2500 0.0843449550055172 0.08328356053029273 0.011120973790695552 0 0 0
511 1 0.005 2500 0.08892071107920653 0.08139616648259006 0.011824228346414131 0 0 0
949 1 0.005 2500 0.0932375522057195 0.08399495966068483 0.011813226149958365 0 0 0
859 1 0.005 2500 0.09750053435149418 0.08147994071054315 0.011109589994893256 0 0 0
1331 1 0.005 2500 0.003976873600267339 0.08506272528190151 0.009617892109807045 0 0 0
149 1 0.005 2500 0.015456749567976939 0.08754834752811248 0.010769538956299445 0 0 0
1383 1 0.005 2500 0.02394761954995901 0.0840194042777669 0.010655118365348317 0 0 0
451 1 0.005 2500 0.02036869780036255 0.08742669033221373 0.009844798881639517 0 0 0
1721 1 0.005 2500 0.03738480060683328 0.08592059853476901 0.010358218347724968 0 0 0
72 1 0.005 2500 0.04210550222189965 0.08751486475447671 0.009943526066866212 0 0 0
171 1 0.005 2500 0.04847958727142945 0.08423196293470084 0.011444741696151003 0 0 0
1192 1 0.005 2500 0.06046382411377248 0.08476629149851195 0.010700151194387594 0 0 0
1567 1 0.005 2500 0.06514394553057591 0.08646104127699186 0.010101412101505707 0 0 0
568 1 0.005 2500 0.06989756258458213 0.08636291390741117 0.011646418414882424 0 0 0
1059 1 0.005 2500 0.07405769014356374 0.08554782735867805 0.00862127464301138 0 0 0
1545 1 0.005 2500 0.07844925923861847 0.086387901281872 0.010857513896777568 0 0 0
1412 1 0.005 2500 0.08594992472691292 0.08744421557974534 0.00886062005172703 0 0 0
1221 1 0.005 2500 0.09750053207982026 0.0864994745624954 0.011073261165468685 0 0 0
494 1 0.005 2500 0.002499118290785115 0.09009986497463052 0.008783660009793791 0 0 0
1131 1 0.005 2500 0.010118297492294384 0.08883567299576307 0.011401415080411162 0 0 0
75 1 0.005 2500 0.021999003839481418 0.09181228343420844 0.011605085500726958 0 0 0
631 1 0.005 2500 0.026521450090483067 0.08892222229284064 0.010322332961584586 0 0 0
98 1 0.005 2500 0.03197963667930663 0.08804483635982596 0.010480020553219322 0 0 0
1951 1 0.005 2500 0.04774783720078304 0.08859365211585732 0.008214282134618268 0 0 0
1444 1 0.005 2500 0.05159211303003123 0.09193334848769223 0.00988425574281258 0 0 0
1416 1 0.005 2500 0.056632428015113784 0.09196679730414535 0.008782394178238622 0 0 0
1039 1 0.005 2500 0.0612616235629796 0.08966601727100999 0.010108855593698405 0 0 0
1550 1 0.005 2500 0.06584817014274823 0.0912658466345243 0.011289089796048412 0 0 0
1516 1 0.005 2500 0.07124181332170858 0.08964856888633102 0.008126455384343834 0 0 0
1824 1 0.005 2500 0.08142989326153074 0.08951564867080455 0.00834308260642401 0 0 0
2023 1 0.005 2500 0.09124316303657631 0.09106166812640722 0.00935791933884803 0 0 0
2018 1 0.005 2500 0.0975007184316504 0.09073446470475359 0.008416834694557479 0 0 0
1854 1 0.005 2500 0.0025109223762169956 0.0944643679354443 0.011220459039757347 0 0 0
1597 1 0.005 2500 0.007799348769930255 0.09312842327515825 0.01020107169748667 0 0 0
109 1 0.005 2500 0.013154286188298333 0.09277466833082113 0.01088678193301036 0 0 0
1075 1 0.005 2500 0.017873086649297078 0.09374461293929875 0.009548898525360892 0 0 0
216 1 0.005 2500 0.0308664079481654 0.0932323745088824 0.010970991953698432 0 0 0
2065 1 0.005 2500 0.03555920751788665 0.09313532925755981 0.009248929441290842 0 0 0
1473 1 0.005 2500 0.04006589210055344 0.09224194827695108 0.011220747193333394 0 0 0
1234 1 0.005 2500 0.04676226805709038 0.09265738187353867 0.01095294549805438 0 0 0
892 1 0.005 2500 0.07675506059266797 0.09389844768543891 0.00947476355087911 0 0 0
2136 1 0.005 2500 0.08363748104140319 0.09390405661864777 0.010191942246515338 0 0 0
1183 1 0.005 2500 0.08807529515998334 0.09469212702781918 0.008028099863048163 0 0 0
1574 1 0.005 2500 0.011642278069674232 0.09750079158726778 0.010278140354844536 0 0 0
1490 1 0.005 2500 0.02275871965597076 0.09750017247910313 0.011103957563881542 0 0 0
1086 1 0.005 2500 0.028185439455749285 0.0975001274745504 0.010799532541477825 0 0 0
893 1 0.005 2500 0.03342139173372311 0.09750113830682927 0.011454290413572992 0 0 0
972 1 0.005 2500 0.03837382931875761 0.09750067319736509 0.01077228421596157 0 0 0
371 1 0.005 2500 0.04318053374658846 0.09614496622283704 0.010985844768184636 0 0 0
2101 1 0.005 2500 0.04799090282095837 0.09750137958643182 0.01107038014081855 0 0 0
814 1 0.005 2500 0.054511918109245355 0.09639098431127166 0.009741801794959214 0 0 0
1758 1 0.005 2500 0.06057954041202325 0.0975003214225558 0.010746482976374119 0 0 0
1016 1 0.005 2500 0.06618846235280014 0.09624275040874011 0.010965898713649372 0 0 0
1282 1 0.005 2500 0.07337298971803959 0.09750099446861575 0.008568449979815106 0 0 0
1741 1 0.005 2500 0.08021767777655903 0.09750180550813503 0.009592840377294801 0 0 0
1537 1 0.005 2500 0.09308443191910878 0.09646735004921658 0.009859187873347327 0 0 0
1599 1 0.005 2500 0.09750078333597402 0.09750028009418128 0.011961159163238824 0 0 0
1557 1 0.005 2500 0.002499403693484441 0.002499123651541222 0.012800927963708623 0 0 0
277 1 0.005 2500 0.00724064802556849 0.0024999381625368873 0.014387243786081402 0 0 0
242 1 0.005 2500 0.01729865706818729 0.002498636078648603 0.013473089880614473 0 0 0
30 1 0.005 2500 0.03305373626863076 0.0024998127447167675 0.015903863689695465 0 0 0
1543 1 0.005 2500 0.038323118670094275 0.0033385579298935313 0.015938714326707903 0 0 0
1202 1 0.005 2500 0.04375802710416689 0.002499555410520747 0.015296259766582915 0 0 0
937 1 0.005 2500 0.04846646437795777 0.002499803068089614 0.013615331827923962 0 0 0
2029 1 0.005 2500 0.05323842727312115 0.002499510998075614 0.012125111734802614 0 0 0
182 1 0.005 2500 0.05650133791989774 0.0024995668727846184 0.015912695008298876 0 0 0
1679 1 0.005 2500 0.06149706143657602 0.002499760381125574 0.015724228258812728 0 0 0
357 1 0.005 2500 0.07155399918091204 0.0024998368518973557 0.01576958999798307 0 0 0
1532 1 0.005 2500 0.08114635975591442 0.0024993218793414717 0.013300827428525404 0 0 0
2147 1 0.005 2500 0.08588042750350912 0.002499624131699026 0.014907695270362708 0 0 0
346 1 0.005 2500 0.09488501537331151 0.0025993089035231003 0.014982513867086968 0 0 0
946 1 0.005 2500 0.004875326188891842 0.006848530902705172 0.013455490706825524 0 0 0
263 1 0.005 2500 0.01435944602784538 0.0064556418060336416 0.014305603047977379 0 0 0
230 1 0.005 2500 0.01939993824964943 0.006531785935860162 0.015550507703079005 0 0 0
883 1 0.005 2500 0.02433842018777848 0.005759140717799855 0.015237493674129564 0 0 0
1097 1 0.005 2500 0.028364493114542793 0.006762892449644396 0.012448236476690914 0 0 0
682 1 0.005 2500 0.032743148019383425 0.007368221984696035 0.014784681594704549 0 0 0
692 1 0.005 2500 0.03834132054258772 0.006756454751060797 0.01228975282991049 0 0 0
603 1 0.005 2500 0.04180354891972527 0.007063508796721674 0.01588377396429204 0 0 0
1778 1 0.005 2500 0.05126087515640414 0.006608547243387791 0.014174202368996842 0 0 0
1170 1 0.005 2500 0.05676364590591375 0.007164919326768301 0.014134653865998298 0 0 0
1514 1 0.005 2500 0.061583492003729375 0.0074895845949563946 0.015421740355650476 0 0 0
1095 1 0.005 2500 0.06930933266029125 0.0071699364918635464 0.015734522190703964 0 0 0
14 1 0.005 2500 0.07646982036648926 0.004948807280692369 0.014539451177948347 0 0 0
660 1 0.005 2500 0.0802954444632415 0.007339619651208463 0.012384890880801235 0 0 0
389 1 0.005 2500 0.08554659001408946 0.006587656746817978 0.012005900500672462 0 0 0
1265 1 0.005 2500 0.09032600751425969 0.004654981167232394 0.014119879215637314 0 0 0
778 1 0.005 2500 0.00249940373230031 0.011200389453475297 0.014097426179807932 0 0 0
528 1 0.005 2500 0.010477661107789672 0.009270523821837776 0.01572007091585174 0 0 0
432 1 0.005 2500 0.017816254573277027 0.009997721067875673 0.012313996836724492 0 0 0
687 1 0.005 2500 0.022788193936594116 0.009475853798975961 0.012274833784386756 0 0 0
1105 1 0.005 2500 0.028247881921608507 0.010962305607588922 0.015158607697668155 0 0 0
1466 1 0.005 2500 0.03732827325504301 0.011651803695417708 0.012352026254173587 0 0 0
61 1 0.005 2500 0.04150741619563956 0.01198825986445898 0.015075201414017714 0 0 0
595 1 0.005 2500 0.04675820308149032 0.00878028788083024 0.014247065206077708 0 0 0
1613 1 0.005 2500 0.051636984428568705 0.01120956703203739 0.012254848109138492 0 0 0
1596 1 0.005 2500 0.06559986025505661 0.010429109787598352 0.014949392656098216 0 0 0
218 1 0.005 2500 0.0739091346941877 0.009175378878380078 0.01529605955282511 0 0 0
1569 1 0.005 2500 0.08432101304437582 0.01050878096560579 0.014855450809420289 0 0 0
1413 1 0.005 2500 0.08912211650583846 0.009573875015928828 0.01382168240094476 0 0 0
1352 1 0.005 2500 0.09750048235404031 0.00852846275210083 0.015095583950299309 0 0 0
334 1 0.005 2500 0.014025792671280284 0.012524630641155145 0.014372696321578086 0 0 0
1429 1 0.005 2500 0.02351126694733217 0.01386046871845577 0.01490169605176523 0 0 0
694 1 0.005 2500 0.033033785095214686 0.012365093087372828 0.014810095068069037 0 0 0
1744 1 0.005 2500 0.04618109448406377 0.013733920539529943 0.014753582235899825 0 0 0
1217 1 0.005 2500 0.05556942690440373 0.013494215606282682 0.014330245496210326 0 0 0
1324 1 0.005 2500 0.06125360587651153 0.012998104950448544 0.014468683930480486 0 0 0
780 1 0.005 2500 0.06633408152946806 0.015365136577594847 0.014642731429832667 0 0 0
1285 1 0.005 2500 0.07010503536505405 0.012353076608114643 0.015947533928196075 0 0 0
1080 1 0.005 2500 0.07462497669698429 0.014240789096213081 0.014946495763042703 0 0 0
1113 1 0.005 2500 0.07977542674480001 0.012551851481259861 0.014460045668560554 0 0 0
807 1 0.005 2500 0.08637309419139104 0.01584182959423852 0.01524429342463986 0 0 0
532 1 0.005 2500 0.09262176700751396 0.013002527379359781 0.014816578423929964 0 0 0
1522 1 0.005 2500 0.09750053680754146 0.013352934522134662 0.013782988061355651 0 0 0
1146 1 0.005 2500 0.00462209358737826 0.019310720259222553 0.01349140568378429 0 0 0
183 1 0.005 2500 0.008998714090709172 0.016053500605541778 0.014513356444443288 0 0 0
53 1 0.005 2500 0.015036715163152515 0.01741090620473238 0.014058800079344637 0 0 0
1047 1 0.005 2500 0.02003528549743403 0.017497945372755 0.014015849307525688 0 0 0
344 1 0.005 2500 0.026517811840500657 0.01823233451009854 0.015688221091679253 0 0 0
1666 1 0.005 2500 0.0307451876410133 0.016629250132709595 0.013553937900480182 0 0 0
902 1 0.005 2500 0.042758491490074414 0.017260911851917707 0.01567234069694607 0 0 0
596 1 0.005 2500 0.04724932902897803 0.019361456339985456 0.015028390679919323 0 0 0
817 1 0.005 2500 0.05127198585011925 0.016295686469868523 0.013054459294227135 0 0 0
1577 1 0.005 2500 0.05743482444650674 0.017958812528413613 0.015589069000992058 0 0 0
1321 1 0.005 2500 0.06350281111742996 0.01948314668352214 0.015445148376422791 0 0 0
1717 1 0.005 2500 0.07082808210316685 0.017483089266834336 0.015204498032928386 0 0 0
851 1 0.005 2500 0.07713320474043982 0.018562991424678557 0.014804624572354697 0 0 0
127 1 0.005 2500 0.09449511391665429 0.01973827153772879 0.015313781399364427 0 0 0
166 1 0.005 2500 0.011243417916903083 0.020472421041092127 0.015170184390434419 0 0 0
375 1 0.005 2500 0.017839237751860054 0.021952669089576524 0.013443258111555981 0 0 0
979 1 0.005 2500 0.02298293824103727 0.021519418975267234 0.014385748603028374 0 0 0
1576 1 0.005 2500 0.03261499592011376 0.02130364048372746 0.015888822627254953 0 0 0
978 1 0.005 2500 0.039061421333915006 0.020582705954313038 0.015127722928860849 0 0 0
924 1 0.005 2500 0.04321399367179568 0.02336242439836632 0.014960056818100254 0 0 0
193 1 0.005 2500 0.05155416942494302 0.0218331379202095 0.01562312389633615 0 0 0
431 1 0.005 2500 0.05638423623441813 0.02277216235843644 0.01473816334780423 0 0 0
1409 1 0.005 2500 0.06000634645691503 0.02061153277424914 0.012054207911585077 0 0 0
111 1 0.005 2500 0.0692891837864953 0.022811594439592343 0.013984337756507896 0 0 0
1173 1 0.005 2500 0.07428546690438491 0.022554913761386956 0.013828284769555851 0 0 0
90 1 0.005 2500 0.08004261996435179 0.023338988984566995 0.013470135482760976 0 0 0
1053 1 0.005 2500 0.0844238132453034 0.02129284432968534 0.01474123059427354 0 0 0
1427 1 0.005 2500 0.08964554516489827 0.020732910931380785 0.014618185867279278 0 0 0
1520 1 0.005 2500 0.09750069914059863 0.0229228241216011 0.01262491073469955 0 0 0
345 1 0.005 2500 0.0025044910805098676 0.027443853242530094 0.014763172310669818 0 0 0
392 1 0.005 2500 0.006837910033950303 0.024847508443293517 0.01565239274230371 0 0 0
1240 1 0.005 2500 0.011416487199251119 0.025081484335326035 0.013241322486629457 0 0 0
786 1 0.005 2500 0.01727276052204153 0.02787046275130844 0.01543763164081482 0 0 0
391 1 0.005 2500 0.022200665625750314 0.027076976672191617 0.015729132215686056 0 0 0
1384 1 0.005 2500 0.026651651373992426 0.024547454187068548 0.015925070643623807 0 0 0
1237 1 0.005 2500 0.030543272286863005 0.024918388097894244 0.012808488404374572 0 0 0
319 1 0.005 2500 0.034784826281701556 0.027112008471354983 0.01481025661354944 0 0 0
1445 1 0.005 2500 0.03956542787806234 0.026741935743781003 0.013383455183415285 0 0 0
146 1 0.005 2500 0.04679422656127836 0.027507126204972275 0.01487225530875196 0 0 0
394 1 0.005 2500 0.05547847907940447 0.027678470210157957 0.014421902293192696 0 0 0
770 1 0.005 2500 0.061761688817004994 0.02440512029986666 0.014797376473160553 0 0 0
764 1 0.005 2500 0.07221529876602525 0.027147271950282274 0.01284246890628891 0 0 0
35 1 0.005 2500 0.07621744946360773 0.026719643481125006 0.015807934685622943 0 0 0
1381 1 0.005 2500 0.0833851401249596 0.027318382158708406 0.014408530232075268 0 0 0
1103 1 0.005 2500 0.08996203294343068 0.02719546814117149 0.012246275192673482 0 0 0
448 1 0.005 2500 0.0930837174407001 0.02452968165512849 0.015100202582035939 0 0 0
1247 1 0.005 2500 0.0975003873093068 0.02788424970662428 0.015005145060122568 0 0 0
140 1 0.005 2500 0.00698069117505891 0.02976358121200362 0.014754559033794652 0 0 0
1268 1 0.005 2500 0.024488265795225693 0.031105343731638698 0.013798133904095424 0 0 0
350 1 0.005 2500 0.037895761053974915 0.0309750784136206 0.015453516636843441 0 0 0
1174 1 0.005 2500 0.05093364090250086 0.030235539380969834 0.015518300193612904 0 0 0
838 1 0.005 2500 0.06793005627648159 0.028383770397684017 0.015100998124116454 0 0 0
669 1 0.005 2500 0.07951650600716004 0.031078607910064802 0.01584377387478064 0 0 0
1274 1 0.005 2500 0.09323700864593654 0.03069766003423955 0.013663241447536837 0 0 0
323 1 0.005 2500 0.004137262266446968 0.03385246012341862 0.01519325206080958 0 0 0
1058 1 0.005 2500 0.01110432129205113 0.03249533526751303 0.01393833544887985 0 0 0
42 1 0.005 2500 0.015765758329214685 0.03230823510390857 0.012140289915925822 0 0 0
645 1 0.005 2500 0.019346159280676168 0.032415904481350774 0.01562821424457055 0 0 0
1487 1 0.005 2500 0.029279494074687242 0.032320677576923855 0.014545596280969844 0 0 0
1853 1 0.005 2500 0.03624571727611701 0.03581828884888928 0.015593721721293719 0 0 0
438 1 0.005 2500 0.04244346651543599 0.03495464108883006 0.014423581488239282 0 0 0
131 1 0.005 2500 0.047208841590980974 0.03346546773501628 0.014687764165220028 0 0 0
891 1 0.005 2500 0.055115166266780105 0.032661576059388256 0.014242963753331886 0 0 0
642 1 0.005 2500 0.059925437957182436 0.03307068039638847 0.015545177124549229 0 0 0
1403 1 0.005 2500 0.0677887093631588 0.033364106512467226 0.01468981769100496 0 0 0
1087 1 0.005 2500 0.07269703117693267 0.03254472130262182 0.013304885209903706 0 0 0
275 1 0.005 2500 0.08271162272579821 0.033608154270706965 0.012671807840916559 0 0 0
1706 1 0.005 2500 0.08901167585182326 0.0348090212426616 0.015285995246900259 0 0 0
969 1 0.005 2500 0.09750051590291704 0.03353647705927107 0.015350005159610682 0 0 0
434 1 0.005 2500 0.008556298744113561 0.036836981014648676 0.01425763832005367 0 0 0
269 1 0.005 2500 0.014254310875241762 0.036290083856558644 0.0147592205485303 0 0 0
1899 1 0.005 2500 0.020978410200453247 0.036999579547236594 0.014477956165345071 0 0 0
1593 1 0.005 2500 0.02594557198707427 0.03754627734901172 0.014639683295858612 0 0 0
905 1 0.005 2500 0.03098057213218188 0.038010270120683094 0.014087950081105576 0 0 0
291 1 0.005 2500 0.04369540361125112 0.03977869917019555 0.014028894163909116 0 0 0
207 1 0.005 2500 0.0491998970372772 0.03796747772202211 0.013813589459773543 0 0 0
1504 1 0.005 2500 0.054343136516661 0.037641326867219674 0.013847531738861106 0 0 0
1659 1 0.005 2500 0.05943718471357296 0.03662813104511373 0.012066572427338924 0 0 0
1790 1 0.005 2500 0.05842999009642793 0.03959835267254834 0.015959800717419526 0 0 0
340 1 0.005 2500 0.0629319240522065 0.037463888680760206 0.015543084048149067 0 0 0
992 1 0.005 2500 0.06787500268049182 0.038359947653793844 0.014528693209898509 0 0 0
703 1 0.005 2500 0.0737628412464017 0.039934835132627 0.014708259838719791 0 0 0
1711 1 0.005 2500 0.07759706088832279 0.03655395226726275 0.014842894982542564 0 0 0
155 1 0.005 2500 0.08184414532300628 0.038894315996684886 0.01362537527370366 0 0 0
1175 1 0.005 2500 0.08646357772917251 0.03940484532049161 0.015468571939300454 0 0 0
1502 1 0.005 2500 0.09096821920697477 0.03940611927716719 0.013300103634400191 0 0 0
2144 1 0.005 2500 0.09750063524116707 0.03856590427211347 0.015594748644920284 0 0 0
402 1 0.005 2500 0.006618340101983237 0.04143387952912391 0.014780074959832867 0 0 0
510 1 0.005 2500 0.01226066588737625 0.040255493155427 0.012457919681811794 0 0 0
282 1 0.005 2500 0.01599517754297496 0.04087673707335059 0.015723476877541998 0 0 0
1724 1 0.005 2500 0.021833974010206758 0.041831177414936575 0.015435011571316088 0 0 0
867 1 0.005 2500 0.027726578109860203 0.04236025409314664 0.015203408837410034 0 0 0
1014 1 0.005 2500 0.03625066138230684 0.04081829346729935 0.01453254614440866 0 0 0
901 1 0.005 2500 0.05182962176198886 0.04269839291125112 0.01327054656435145 0 0 0
1805 1 0.005 2500 0.056785287783382224 0.04224330068963506 0.012020301643733354 0 0 0
729 1 0.005 2500 0.06103960319429664 0.04378173819111193 0.015131984819326042 0 0 0
590 1 0.005 2500 0.08858758433031647 0.04389747330112735 0.014867276562685286 0 0 0
973 1 0.005 2500 0.09750049246139926 0.04351884658275817 0.014916108639924984 0 0 0
2100 1 0.005 2500 0.002498485986212319 0.047408794094264184 0.012029834765676645 0 0 0
695 1 0.005 2500 0.0024998551919554455 0.04423679866829619 0.015894237040962673 0 0 0
48 1 0.005 2500 0.006714004384133764 0.04794530575043304 0.01466361522403839 0 0 0
202 1 0.005 2500 0.01037554173440319 0.04479540998899203 0.013371522024049459 0 0 0
270 1 0.005 2500 0.01915867304228402 0.046388744020235004 0.013193731231563453 0 0 0
464 1 0.005 2500 0.024391803768346664 0.04597804087792438 0.014315543228045895 0 0 0
646 1 0.005 2500 0.029256844691989973 0.047085093799895096 0.014628596838384869 0 0 0
1302 1 0.005 2500 0.033956839938647475 0.04525491538291443 0.014763033829617349 0 0 0
811 1 0.005 2500 0.03926582144138396 0.04524221494359645 0.014361958298156905 0 0 0
258 1 0.005 2500 0.048059533561674354 0.0455097765712671 0.014966905113699249 0 0 0
820 1 0.005 2500 0.05267745044752731 0.047408225093810166 0.014716997763499383 0 0 0
1224 1 0.005 2500 0.05764605764463729 0.047471509949194204 0.015269714649037192 0 0 0
529 1 0.005 2500 0.067509887158979 0.047699208081688343 0.014885165709864699 0 0 0
504 1 0.005 2500 0.0709924937989124 0.04404979383500039 0.015330711595727072 0 0 0
1145 1 0.005 2500 0.07880702918047863 0.04553860732408032 0.013646398490137766 0 0 0
1470 1 0.005 2500 0.08368775365277406 0.04426195884731075 0.015792011338179042 0 0 0
177 1 0.005 2500 0.09306964560974207 0.0461208874948463 0.01474690361668842 0 0 0
1177 1 0.005 2500 0.01421006152284552 0.049396354963027696 0.013214902036981009 0 0 0
1468 1 0.005 2500 0.021945126816187023 0.05030309074831825 0.014870018832645233 0 0 0
1010 1 0.005 2500 0.026677760336884737 0.05191338351406383 0.014950835958352563 0 0 0
1884 1 0.005 2500 0.033162802756498015 0.05010549720733913 0.01384693206169819 0 0 0
1640 1 0.005 2500 0.04469187964429394 0.04921867093842282 0.014980663522109427 0 0 0
1935 1 0.005 2500 0.049322677969057115 0.05110989387903671 0.014512203473867667 0 0 0
259 1 0.005 2500 0.0625155218480526 0.048554134205745565 0.014930221994835225 0 0 0
847 1 0.005 2500 0.07356632501685431 0.048416611400573496 0.014108653451210275 0 0 0
311 1 0.005 2500 0.07807972530625396 0.05019221066685919 0.015322487652665074 0 0 0
917 1 0.005 2500 0.08337642517101534 0.04907053120710602 0.014291396298766206 0 0 0
142 1 0.005 2500 0.08839639047318575 0.048924663104771414 0.014751331402203893 0 0 0
960 1 0.005 2500 0.09323813345524637 0.051106598533496625 0.01507364446461975 0 0 0
1206 1 0.005 2500 0.09750055946788028 0.04850343549065878 0.015299353908083268 0 0 0
1521 1 0.005 2500 0.00250297185204899 0.05507082434174258 0.015344929099324922 0 0 0
796 1 0.005 2500 0.006824771056170515 0.05299160562122637 0.013581618290640385 0 0 0
69 1 0.005 2500 0.01326654736945927 0.05366760117399769 0.015635784208313453 0 0 0
514 1 0.005 2500 0.018448060995100622 0.053840711654792386 0.01537247978963127 0 0 0
1888 1 0.005 2500 0.02873043068071314 0.05558846591755372 0.012253044052727013 0 0 0
1310 1 0.005 2500 0.03605504396823223 0.05530867396212388 0.015125794740659846 0 0 0
1430 1 0.005 2500 0.040386478511089514 0.05209665102096535 0.015243394485310282 0 0 0
309 1 0.005 2500 0.04519894101592173 0.054095963705083634 0.015956081442001602 0 0 0
1442 1 0.005 2500 0.054146473061722225 0.05214837939951135 0.015318279096510902 0 0 0
1178 1 0.005 2500 0.059133883933793895 0.052236011289147136 0.014984149738118261 0 0 0
865 1 0.005 2500 0.06398112566191397 0.053302229904521284 0.01438091661491893 0 0 0
1780 1 0.005 2500 0.06901774842865048 0.052447068191799846 0.014434112193012025 0 0 0
515 1 0.005 2500 0.0738445212382037 0.053214846754312886 0.015485828778939902 0 0 0
1250 1 0.005 2500 0.07996675195319226 0.05539444382487077 0.014580385963358086 0 0 0
328 1 0.005 2500 0.08472933374821942 0.053877072264798674 0.014539638408146848 0 0 0
387 1 0.005 2500 0.08967697686469717 0.05450570852928936 0.014203136354191587 0 0 0
1839 1 0.005 2500 0.09742049256117029 0.05382074222952495 0.015453736878794916 0 0 0
1084 1 0.005 2500 0.009584671610592019 0.056959677834352275 0.014859436801095862 0 0 0
1136 1 0.005 2500 0.017707428717965924 0.05875541906119539 0.014835462737401477 0 0 0
516 1 0.005 2500 0.022606627462786983 0.056613124869136285 0.015503942340544875 0 0 0
2036 1 0.005 2500 0.03271101877093288 0.05847125480358871 0.013168321121150128 0 0 0
1100 1 0.005 2500 0.04049206869528677 0.05739031909847314 0.014140987662974652 0 0 0
1767 1 0.005 2500 0.04886414097455068 0.057492101206965796 0.015783438434992348 0 0 0
1344 1 0.005 2500 0.05558726919577982 0.056896221323436955 0.014705403778804168 0 0 0
1740 1 0.005 2500 0.060574536035838 0.05724343596290254 0.014753450657465847 0 0 0
249 1 0.005 2500 0.06597317641258622 0.0578441394215691 0.01500849241377359 0 0 0
1648 1 0.005 2500 0.07087674380148593 0.05708781979152959 0.014394685819639895 0 0 0
1002 1 0.005 2500 0.07577119585728874 0.05810412774183393 0.014371219292041082 0 0 0
1455 1 0.005 2500 0.09093698227975905 0.05994944831329632 0.015453822835874194 0 0 0
2082 1 0.005 2500 0.09593664345699533 0.05876695785642011 0.015269618326401209 0 0 0
1379 1 0.005 2500 0.0024988580227097872 0.06006888011236216 0.015461424560539248 0 0 0
1424 1 0.005 2500 0.006826827193667306 0.06116107475222742 0.013211542843889673 0 0 0
1149 1 0.005 2500 0.012121985212498975 0.06123781355571403 0.015365455051423272 0 0 0
423 1 0.005 2500 0.021435491921498216 0.062034759042638006 0.015420417380253678 0 0 0
618 1 0.005 2500 0.026425365354648817 0.06177077659586957 0.015259873652272458 0 0 0
110 1 0.005 2500 0.03403614691343575 0.06316637854735781 0.012078324862399688 0 0 0
606 1 0.005 2500 0.03690573632296895 0.060667697747559736 0.015320777848826031 0 0 0
398 1 0.005 2500 0.047908877954963014 0.062280999923174554 0.014712105974291772 0 0 0
1069 1 0.005 2500 0.05275101739270861 0.06122541743118608 0.015371611504788019 0 0 0
839 1 0.005 2500 0.057779898880137626 0.06157976241747926 0.015016077043630236 0 0 0
793 1 0.005 2500 0.06279471597027603 0.06169519374209974 0.015251932472686197 0 0 0
1669 1 0.005 2500 0.069181514941146 0.061630223069075875 0.015614763434861099 0 0 0
928 1 0.005 2500 0.07404124964938574 0.06276673048282971 0.01487813526486724 0 0 0
191 1 0.005 2500 0.08051997824626728 0.06030856086721479 0.015313764419286304 0 0 0
1346 1 0.005 2500 0.0854112377843657 0.061299313121869384 0.015017075958826695 0 0 0
1880 1 0.005 2500 0.09750022391798858 0.0634976692143589 0.015681285635801505 0 0 0
1539 1 0.005 2500 0.002522494671491186 0.06506877460177182 0.01549076162769998 0 0 0
976 1 0.005 2500 0.007271518597141327 0.06677463686739214 0.012418832183863268 0 0 0
689 1 0.005 2500 0.011664165274818682 0.06651165873257155 0.014917502246131526 0 0 0
82 1 0.005 2500 0.030655799598106652 0.0644204375024223 0.015542021819903128 0 0 0
1243 1 0.005 2500 0.03687064390998566 0.06626447620368518 0.01479084053561562 0 0 0
843 1 0.005 2500 0.04126790998679066 0.0640117296897545 0.015556597399423357 0 0 0
1042 1 0.005 2500 0.04621925876093789 0.06698425939672964 0.014581979170844143 0 0 0
1026 1 0.005 2500 0.05497430381998075 0.06570350984244228 0.015364138835454393 0 0 0
1327 1 0.005 2500 0.06065617574853615 0.06632401353280759 0.01530073476624532 0 0 0
907 1 0.005 2500 0.06555201867434537 0.06578621910130902 0.014440665305945321 0 0 0
1279 1 0.005 2500 0.07052695358916762 0.0662901379011374 0.01440303410955099 0 0 0
1418 1 0.005 2500 0.07939861791142676 0.06479372416879357 0.013411949228406545 0 0 0
1328 1 0.005 2500 0.08864320104795047 0.06541632123457715 0.014493298048589743 0 0 0
175 1 0.005 2500 0.09405860088004263 0.06748974420627143 0.014615958627990665 0 0 0
1032 1 0.005 2500 0.003791211132226542 0.07001416565528816 0.015355063224456119 0 0 0
1764 1 0.005 2500 0.007677220398384821 0.07174790205391356 0.012729882607240114 0 0 0
267 1 0.005 2500 0.018031914632562502 0.06816471001082264 0.014821798806642174 0 0 0
289 1 0.005 2500 0.02213850087934115 0.07096055220624747 0.015402586112351985 0 0 0
1254 1 0.005 2500 0.03749605550657166 0.0712207443261367 0.014980989898855388 0 0 0
1034 1 0.005 2500 0.04158620618560803 0.06864501151303598 0.01370482656808838 0 0 0
1968 1 0.005 2500 0.04632126394836546 0.07196908753492509 0.01494805648969477 0 0 0
707 1 0.005 2500 0.05057290656995025 0.06932959329145753 0.01551296014836157 0 0 0
757 1 0.005 2500 0.05736825032893035 0.07008767750910767 0.015153988773097288 0 0 0
1435 1 0.005 2500 0.062393261333434404 0.07189840169532968 0.014638684186334378 0 0 0
145 1 0.005 2500 0.06785804181913184 0.07045741932414666 0.015111808237311218 0 0 0
1423 1 0.005 2500 0.07629344474097666 0.06871114281623414 0.013491436079520431 0 0 0
944 1 0.005 2500 0.08276432579670302 0.06829177202269589 0.014607383691822228 0 0 0
1369 1 0.005 2500 0.08719018110890553 0.07050158492092735 0.013883997664648167 0 0 0
1905 1 0.005 2500 0.0919615175164385 0.0719877400139108 0.014013584492848143 0 0 0
386 1 0.005 2500 0.002499542908296144 0.07501107848819848 0.01545784603082912 0 0 0
813 1 0.005 2500 0.013899612014773034 0.07352739427509412 0.014958828178316631 0 0 0
821 1 0.005 2500 0.019498753632949856 0.07552574213373231 0.014596833185558178 0 0 0
1524 1 0.005 2500 0.025072340109547592 0.07389518920733762 0.012121770361133549 0 0 0
574 1 0.005 2500 0.032530670077826444 0.07456781655791438 0.01574044770862096 0 0 0
469 1 0.005 2500 0.04186959707151214 0.07413559306161346 0.015644717950517716 0 0 0
1304 1 0.005 2500 0.05187184778392989 0.07457492422825153 0.01501927264967722 0 0 0
488 1 0.005 2500 0.05835911595401751 0.07491592211253534 0.014318732208533592 0 0 0
1115 1 0.005 2500 0.06605883114767308 0.07529129766851617 0.01486209308301823 0 0 0
243 1 0.005 2500 0.07097121598448508 0.07436266995014296 0.01488362069899618 0 0 0
1055 1 0.005 2500 0.07567633254980735 0.07303338288770343 0.015927528967250894 0 0 0
1343 1 0.005 2500 0.08155321019786518 0.07258551605553662 0.01235142234371511 0 0 0
463 1 0.005 2500 0.08521169618547739 0.07482915600859227 0.01541689903737999 0 0 0
1093 1 0.005 2500 0.0975006444288112 0.07216722456919203 0.015798199620332753 0 0 0
354 1 0.005 2500 0.00731370648055523 0.07682989930874361 0.01228972291707594 0 0 0
477 1 0.005 2500 0.015116947370653404 0.07975968243645569 0.014386969934126212 0 0 0
959 1 0.005 2500 0.024447152267492524 0.07970616372082913 0.013132826377100608 0 0 0
399 1 0.005 2500 0.02831304644255948 0.07715120597320407 0.015009510401627636 0 0 0
324 1 0.005 2500 0.032668348141408475 0.07960326026957525 0.015119075553215755 0 0 0
15 1 0.005 2500 0.043919344279549445 0.07869009725065854 0.01542148515807085 0 0 0
1397 1 0.005 2500 0.04881318004622844 0.07990541734274503 0.014355854233435932 0 0 0
2195 1 0.005 2500 0.05472476911100142 0.0775309193444061 0.012094877957067745 0 0 0
1212 1 0.005 2500 0.062223913173894405 0.07761160644201413 0.012648643338717288 0 0 0
458 1 0.005 2500 0.06928881176418158 0.07908638926480656 0.01525497238559297 0 0 0
1401 1 0.005 2500 0.07660628496434622 0.07781864351671115 0.0122827586932872 0 0 0
1121 1 0.005 2500 0.08144586546303427 0.07760764070950034 0.013658831410817605 0 0 0
963 1 0.005 2500 0.0855889244408069 0.07991960175201201 0.015246329021881543 0 0 0
1251 1 0.005 2500 0.08954694938692445 0.07703137028411693 0.014253599785101727 0 0 0
1540 1 0.005 2500 0.09451619537725689 0.07612716092928985 0.015164450111792967 0 0 0
945 1 0.005 2500 0.0024996938953721834 0.08206045734977649 0.013332151962561553 0 0 0
872 1 0.005 2500 0.006730754358185303 0.08043292035059986 0.015705804997503865 0 0 0
939 1 0.005 2500 0.012462600809752233 0.08378893759885724 0.01214763663649228 0 0 0
994 1 0.005 2500 0.019979403721519653 0.08059904329761484 0.01519131200660495 0 0 0
60 1 0.005 2500 0.028364952296879953 0.08214398446419845 0.015261025315255972 0 0 0
255 1 0.005 2500 0.037943187092956965 0.08166746715398458 0.01367940710030608 0 0 0
1536 1 0.005 2500 0.05197352507867231 0.08370924072386857 0.015085974671985108 0 0 0
878 1 0.005 2500 0.058317334007383134 0.0803677032637521 0.014109444383553665 0 0 0
429 1 0.005 2500 0.06290457914072634 0.08234423594074759 0.014329130758729098 0 0 0
1334 1 0.005 2500 0.07649350995848068 0.08278985291283063 0.013724950080452901 0 0 0
991 1 0.005 2500 0.08130384928474525 0.082486384191769 0.01504879568352517 0 0 0
542 1 0.005 2500 0.09285106935662697 0.08081508115932387 0.015650706041826872 0 0 0
1078 1 0.005 2500 0.097136228277935 0.08339049102797029 0.015715216531701874 0 0 0
490 1 0.005 2500 0.007601912677359037 0.08456096144959623 0.013023641848730274 0 0 0
365 1 0.005 2500 0.01686414697760691 0.08444400380017186 0.014426676241588915 0 0 0
802 1 0.005 2500 0.0235523425794305 0.08760084394553065 0.014121372416181903 0 0 0
1213 1 0.005 2500 0.02888122199423494 0.08716878056342969 0.01436592363982115 0 0 0
512 1 0.005 2500 0.033798100292264266 0.08581669675919675 0.01456975114090021 0 0 0
906 1 0.005 2500 0.04266917807911269 0.08432406600623689 0.01375119429644416 0 0 0
1061 1 0.005 2500 0.05875855319720858 0.08512436845775516 0.015583243463447506 0 0 0
1200 1 0.005 2500 0.06289123648859138 0.08767468248330032 0.014395802912368248 0 0 0
1523 1 0.005 2500 0.06797522121433604 0.0841990973560186 0.01572341334610504 0 0 0
1190 1 0.005 2500 0.07843703580957775 0.08697081618440053 0.01582260164410286 0 0 0
1231 1 0.005 2500 0.08295254133908812 0.08792974841443757 0.012832521266504247 0 0 0
1065 1 0.005 2500 0.08890375477303886 0.08631226029896613 0.01273169842281864 0 0 0
363 1 0.005 2500 0.00472812092786185 0.08865130691771583 0.013017098369988857 0 0 0
1559 1 0.005 2500 0.013522031919391643 0.0883832727234008 0.015303163446133972 0 0 0
495 1 0.005 2500 0.01877833516801761 0.08907705844067992 0.014287461545318614 0 0 0
684 1 0.005 2500 0.03079397384601297 0.09159280752483216 0.015693292772980042 0 0 0
541 1 0.005 2500 0.03515031507253529 0.09050527085830185 0.013481043741780302 0 0 0
1515 1 0.005 2500 0.03958156259112032 0.08825357143284382 0.014195821549550873 0 0 0
224 1 0.005 2500 0.04593418025590148 0.08821081527697405 0.013082620727558603 0 0 0
754 1 0.005 2500 0.0509668082603384 0.08821335402597125 0.013164523234415304 0 0 0
1003 1 0.005 2500 0.05698222244142887 0.08860665734717256 0.012466899578695824 0 0 0
551 1 0.005 2500 0.06797691136279622 0.08918072463687284 0.015302573631467874 0 0 0
1045 1 0.005 2500 0.07436600978782272 0.08921516118061684 0.012004724896678575 0 0 0
1068 1 0.005 2500 0.07897419763955163 0.09095704939568208 0.012853106149237119 0 0 0
818 1 0.005 2500 0.08713901302096015 0.09096069470374232 0.01220999544999079 0 0 0
1260 1 0.005 2500 0.09295157611408313 0.09080308026132977 0.014049206126611292 0 0 0
861 1 0.005 2500 0.09703175576450139 0.08838876843791411 0.01567723313766184 0 0 0
1450 1 0.005 2500 0.005786465945667179 0.09320018537833118 0.014800000061307397 0 0 0
474 1 0.005 2500 0.010719741943996374 0.0925233841910653 0.015245936018336303 0 0 0
209 1 0.005 2500 0.01604332600422323 0.09321019953285746 0.014943401979876645 0 0 0
1116 1 0.005 2500 0.026527906586457442 0.09288393021770372 0.01342885214755988 0 0 0
472 1 0.005 2500 0.03868763512238199 0.09302033382664344 0.015963057886767187 0 0 0
1452 1 0.005 2500 0.04353851099421427 0.09282905311760187 0.014769247850002743 0 0 0
444 1 0.005 2500 0.04888172462064384 0.0936099177093603 0.015379262653247364 0 0 0
717 1 0.005 2500 0.05425880686007904 0.09314814223173877 0.013934722893377268 0 0 0
1872 1 0.005 2500 0.059151935893343124 0.09322658763108951 0.012912541796636232 0 0 0
1396 1 0.005 2500 0.06339814611395174 0.09253326714675475 0.015458572023628598 0 0 0
220 1 0.005 2500 0.06791878970758176 0.09463930517877739 0.01581217170853306 0 0 0
1664 1 0.005 2500 0.07060436453957976 0.09254076193977012 0.012154039683169788 0 0 0
1431 1 0.005 2500 0.07457867894794182 0.09310860504974437 0.015133608164861059 0 0 0
1365 1 0.005 2500 0.08324914308223583 0.09243367227471914 0.014982768911197047 0 0 0
931 1 0.005 2500 0.08935917250897442 0.09393531549519045 0.01555972796435931 0 0 0
1024 1 0.005 2500 0.09750029766144197 0.09261998686663193 0.013047232582444106 0 0 0
1152 1 0.005 2500 0.002499438671464938 0.09750076546893449 0.015191394456932277 0 0 0
904 1 0.005 2500 0.006717751899219577 0.09750110017145654 0.012429503741427596 0 0 0
916 1 0.005 2500 0.011193814224831592 0.09750044357342764 0.015256509546362438 0 0 0
696 1 0.005 2500 0.016178759625009292 0.09750058901620966 0.012379910489481779 0 0 0
591 1 0.005 2500 0.020218127586619696 0.09747078095090692 0.015409061073762918 0 0 0
1583 1 0.005 2500 0.025689435315950988 0.09750061329013497 0.015154011809187178 0 0 0
257 1 0.005 2500 0.03066659660656348 0.09750034221967342 0.015625748282392025 0 0 0
505 1 0.005 2500 0.03581597751307095 0.09711090934740693 0.015825175719642825 0 0 0
2099 1 0.005 2500 0.040759687822015285 0.09750013849158386 0.015165602488949905 0 0 0
234 1 0.005 2500 0.04574536339587076 0.09750027704644067 0.015536748241013969 0 0 0
1119 1 0.005 2500 0.051823059029520904 0.09750054833708584 0.014280763977112094 0 0 0
923 1 0.005 2500 0.05681633760369608 0.09750090355482685 0.014037200160753225 0 0 0
1259 1 0.005 2500 0.06336695165921157 0.09750068767389562 0.01489667690446733 0 0 0
1023 1 0.005 2500 0.07067470717463721 0.0975007329051056 0.012776809277160925 0 0 0
1041 1 0.005 2500 0.07566850479752525 0.097500674301947 0.013008836704202036 0 0 0
227 1 0.005 2500 0.08033111370797055 0.0964616300618087 0.014480647313083914 0 0 0
164 1 0.005 2500 0.08510476597125763 0.09750036378853887 0.015539203781117585 0 0 0
1218 1 0.005 2500 0.08874175896410921 0.09750068031570341 0.012109580678305074 0 0 0
1092 1 0.005 2500 0.09301585186151462 0.09750026756127324 0.014749780215863295 0 0 0
231 1 0.005 2500 0.007722740510691138 0.0024999282557716987 0.019363346429616818 0 0 0
85 1 0.005 2500 0.011919980028559 0.0024996985454556523 0.016148178220348638 0 0 0
359 1 0.005 2500 0.0165967916430894 0.0024998137258386184 0.01842287007895395 0 0 0
1355 1 0.005 2500 0.023020976695885226 0.0024996214375270867 0.01879191429058003 0 0 0
187 1 0.005 2500 0.028061568068040457 0.0024997829416944658 0.016179427483401523 0 0 0
1565 1 0.005 2500 0.041462882997713925 0.0024999032182631115 0.019738061458735877 0 0 0
1241 1 0.005 2500 0.05173383898049016 0.00280683131538768 0.017387023135306517 0 0 0
247 1 0.005 2500 0.06647512644597965 0.0024996320440037628 0.016186740803602977 0 0 0
1242 1 0.005 2500 0.07457475858729995 0.002499875187361524 0.019753428887310742 0 0 0
664 1 0.005 2500 0.07922472291216615 0.002499483202901568 0.017916363915212785 0 0 0
440 1 0.005 2500 0.08395896353434995 0.002499754703546257 0.019523189255362113 0 0 0
1568 1 0.005 2500 0.08933560541569431 0.002499838680947879 0.018521150272396945 0 0 0
914 1 0.005 2500 0.09750054983416855 0.002499848456356148 0.019241788081281734 0 0 0
122 1 0.005 2500 0.0024996454688458783 0.004553277289837621 0.01735880845943853 0 0 0
5 1 0.005 2500 0.006509862990680467 0.007433639459677048 0.01814417110314336 0 0 0
1228 1 0.005 2500 0.028838746754469072 0.007018116662338765 0.01817371552665869 0 0 0
605 1 0.005 2500 0.035286777983912464 0.005296979430237757 0.019394750485174427 0 0 0
489 1 0.005 2500 0.047314052789027616 0.005182537041493315 0.017673709063430642 0 0 0
10 1 0.005 2500 0.058166358631812416 0.006198505710377028 0.018835403664831666 0 0 0
1703 1 0.005 2500 0.06529389044816487 0.006674074060877583 0.018671566155375453 0 0 0
536 1 0.005 2500 0.06934291593364764 0.004048010115112872 0.019977964973128343 0 0 0
719 1 0.005 2500 0.07689535752956739 0.006884417770517683 0.01912939010991757 0 0 0
500 1 0.005 2500 0.08192912967067392 0.00661519443999169 0.01705389371168684 0 0 0
573 1 0.005 2500 0.08691980504888457 0.006756147479101627 0.01731502879930395 0 0 0
913 1 0.005 2500 0.09326705404977093 0.007100235143575442 0.017339111994497634 0 0 0
792 1 0.005 2500 0.09750029194022278 0.007445881865749833 0.019976563205840178 0 0 0
455 1 0.005 2500 0.00249975777124485 0.010290447437051263 0.01901331179407721 0 0 0
1354 1 0.005 2500 0.01585449718401955 0.009541404374774295 0.017943991544987 0 0 0
192 1 0.005 2500 0.024220988135805293 0.00995927165872473 0.01794694661118036 0 0 0
735 1 0.005 2500 0.03291872587572433 0.009722905787488113 0.019191658909707556 0 0 0
1316 1 0.005 2500 0.03712552095797948 0.009003065677743442 0.016587417730882414 0 0 0
730 1 0.005 2500 0.04027146805367877 0.0108808345252322 0.01998945942062097 0 0 0
789 1 0.005 2500 0.04505436066290161 0.010678264154804806 0.01854714782621647 0 0 0
1348 1 0.005 2500 0.049981765981137606 0.008952201910212218 0.01958944186476353 0 0 0
699 1 0.005 2500 0.05448587256947111 0.009906657550653529 0.01764003865453664 0 0 0
283 1 0.005 2500 0.06231873540880053 0.010654486056471369 0.01922155093149797 0 0 0
1392 1 0.005 2500 0.07150197765951186 0.009328358223154304 0.01967553588448607 0 0 0
1141 1 0.005 2500 0.07648926485698795 0.0118635638616553 0.018929811067038706 0 0 0
486 1 0.005 2500 0.08145404512644945 0.011277560874936738 0.01899312873358613 0 0 0
708 1 0.005 2500 0.09312201216384802 0.011567402180755887 0.019579595625798227 0 0 0
498 1 0.005 2500 0.0026079724401567353 0.01569145518547784 0.01629204409065234 0 0 0
143 1 0.005 2500 0.006607948743908384 0.0122677742468381 0.01673812557255157 0 0 0
633 1 0.005 2500 0.011171298315512147 0.013514977553010944 0.018356008046392654 0 0 0
452 1 0.005 2500 0.018150468357890782 0.01385025463949327 0.016868110868741508 0 0 0
39 1 0.005 2500 0.026789234943767296 0.014220257041638082 0.018659411031343855 0 0 0
445 1 0.005 2500 0.03878198686298876 0.015140765884235456 0.017837210740790307 0 0 0
1219 1 0.005 2500 0.050686148324530646 0.013048004855946649 0.01680994017449402 0 0 0
1257 1 0.005 2500 0.05823172226124368 0.013457745501451375 0.018561648108338755 0 0 0
503 1 0.005 2500 0.06275827671731365 0.015578928023177068 0.01847787370003108 0 0 0
975 1 0.005 2500 0.06760763067906264 0.014874079738029181 0.019469322835443944 0 0 0
559 1 0.005 2500 0.0725836775044094 0.015350988719347527 0.019372978314395304 0 0 0
135 1 0.005 2500 0.08460525686353255 0.0150620324500947 0.01985539581670788 0 0 0
1551 1 0.005 2500 0.08822079010065384 0.012122147729024094 0.01802764661496026 0 0 0
864 1 0.005 2500 0.09750023265790038 0.013837599939349582 0.01875880451616928 0 0 0
229 1 0.005 2500 0.01274696705294193 0.018157131259125287 0.019338554164246805 0 0 0
7 1 0.005 2500 0.017546852327932027 0.018864931053015788 0.018131026532460588 0 0 0
482 1 0.005 2500 0.022429253348862584 0.017265680124469284 0.018398901550505477 0 0 0
718 1 0.005 2500 0.029961874104705223 0.01875471519663852 0.019274458075920434 0 0 0
781 1 0.005 2500 0.03401717875904213 0.016567744792908505 0.017333122809721963 0 0 0
1033 1 0.005 2500 0.05290070870565212 0.017459027912231848 0.017635935116464545 0 0 0
17 1 0.005 2500 0.06761771729904537 0.019736120706221775 0.018304680963407923 0 0 0
852 1 0.005 2500 0.07738975172862288 0.016753140132084957 0.019457988356934568 0 0 0
280 1 0.005 2500 0.0815860936508559 0.016838811559506152 0.016287552078320344 0 0 0
874 1 0.005 2500 0.09075819604693512 0.01679430809679572 0.01748963133498424 0 0 0
1 1 0.005 2500 0.09750053274236577 0.018817646173499965 0.019200980392053816 0 0 0
430 1 0.005 2500 0.0024995893358842154 0.02256608844036252 0.016636927772061962 0 0 0
215 1 0.005 2500 0.0069817985734549545 0.020325714666046577 0.0177804931013067 0 0 0
554 1 0.005 2500 0.010253150402471736 0.02384481489761266 0.019163477527132537 0 0 0
88 1 0.005 2500 0.014671782959634366 0.023831830692611338 0.016824172079448037 0 0 0
287 1 0.005 2500 0.019538798110661226 0.02344517061144892 0.017901951449491527 0 0 0
409 1 0.005 2500 0.025220719711212345 0.021283068853769658 0.01943102988138191 0 0 0
1421 1 0.005 2500 0.0361159137554866 0.0206118328487621 0.019390852709607446 0 0 0
613 1 0.005 2500 0.04346784585929139 0.020729427777585664 0.019202719826123822 0 0 0
745 1 0.005 2500 0.04738539141802598 0.023509564046436084 0.017816135644370457 0 0 0
639 1 0.005 2500 0.05476638823702466 0.022212940064797237 0.01943567624891774 0 0 0
884 1 0.005 2500 0.05966203362002592 0.021520691733029826 0.01829998379132513 0 0 0
728 1 0.005 2500 0.073837903027144 0.02005967633199232 0.018253782402403353 0 0 0
713 1 0.005 2500 0.07990756135265799 0.021226162128306858 0.01799925494556044 0 0 0
736 1 0.005 2500 0.0870793677930465 0.020502386877723412 0.018902678635325066 0 0 0
278 1 0.005 2500 0.09296281948320548 0.021785234794856802 0.019609695435412654 0 0 0
710 1 0.005 2500 0.0973108763929277 0.023544414010557197 0.017582077543705332 0 0 0
108 1 0.005 2500 0.030263330947177626 0.027953257680778453 0.016771459108885986 0 0 0
648 1 0.005 2500 0.033600978629025724 0.024952868630901754 0.01916127333685996 0 0 0
875 1 0.005 2500 0.038455230418080015 0.024745366143813025 0.017830296955559644 0 0 0
1038 1 0.005 2500 0.04245532432728051 0.027705469981556027 0.01734790580440129 0 0 0
577 1 0.005 2500 0.05190523630765374 0.026115782190116853 0.018178889050829518 0 0 0
1185 1 0.005 2500 0.0588939631519732 0.026956874484462108 0.018000925859100892 0 0 0
1372 1 0.005 2500 0.06601762643909645 0.02438924559815277 0.017420375319116246 0 0 0
1164 1 0.005 2500 0.07173621056217878 0.02458695449739231 0.01796631950542671 0 0 0
1447 1 0.005 2500 0.08050024519974248 0.026179565028704103 0.01832983058795902 0 0 0
737 1 0.005 2500 0.08752228357035456 0.02503129340285889 0.016035607321824536 0 0 0
614 1 0.005 2500 0.0851359177383417 0.027458310420972118 0.019697670104247944 0 0 0
256 1 0.005 2500 0.09107304042523275 0.026401785188136198 0.019277489222972975 0 0 0
594 1 0.005 2500 0.0024998407475425354 0.03061214828575685 0.018630715597077407 0 0 0
749 1 0.005 2500 0.006918460468934846 0.028082857345342424 0.019463153375813006 0 0 0
139 1 0.005 2500 0.01128450810706342 0.0284500005384282 0.016933278175804825 0 0 0
721 1 0.005 2500 0.01980538128393537 0.029301327906291166 0.019512186700773225 0 0 0
147 1 0.005 2500 0.025766282472839536 0.029468056238452497 0.018345851624564303 0 0 0
380 1 0.005 2500 0.03336420774440617 0.03182698538785608 0.017385611300425523 0 0 0
62 1 0.005 2500 0.03662670530980039 0.028941816997963433 0.019841259491083858 0 0 0
525 1 0.005 2500 0.04081180312643042 0.031961260198424664 0.019393137882549955 0 0 0
799 1 0.005 2500 0.04677494731828073 0.028039070461059842 0.01984349768975252 0 0 0
271 1 0.005 2500 0.0550089697615048 0.030304111041622606 0.018650731726386763 0 0 0
1533 1 0.005 2500 0.06294175508588212 0.029110550990146086 0.01600720026648531 0 0 0
829 1 0.005 2500 0.06640681953970173 0.03110159884603935 0.019011327362389054 0 0 0
615 1 0.005 2500 0.07232172637176634 0.029500547790184267 0.017252662316008912 0 0 0
64 1 0.005 2500 0.08438089922232897 0.03153506044434162 0.016903822157209807 0 0 0
34 1 0.005 2500 0.08907976045325247 0.02992307071065014 0.01634163218132348 0 0 0
103 1 0.005 2500 0.09393849357320555 0.0311276376332858 0.01859468039852112 0 0 0
425 1 0.005 2500 0.003527682372185587 0.03532917253989592 0.019930777137637325 0 0 0
810 1 0.005 2500 0.00772617769687275 0.03293161689850287 0.01855002720093683 0 0 0
1364 1 0.005 2500 0.014689942504795368 0.032078189583252904 0.017417517856496107 0 0 0
8 1 0.005 2500 0.023576389755644273 0.03393726855534567 0.017815904050464484 0 0 0
1031 1 0.005 2500 0.028349633392542338 0.03364792048796249 0.01927531624360084 0 0 0
1756 1 0.005 2500 0.051570387250358896 0.03495914603845312 0.01702750412099335 0 0 0
421 1 0.005 2500 0.05641460455509559 0.03549206271876118 0.018154005482932174 0 0 0
1398 1 0.005 2500 0.06170539549203265 0.035079875138695926 0.019763231830381905 0 0 0
317 1 0.005 2500 0.07156954736413826 0.03590353943450867 0.016832169124721966 0 0 0
78 1 0.005 2500 0.07560977127902967 0.03324187353908071 0.01809107350868557 0 0 0
176 1 0.005 2500 0.08086172272551193 0.035177725636898464 0.01837019687872966 0 0 0
205 1 0.005 2500 0.08577811593942423 0.0358792076550746 0.018946205902501234 0 0 0
104 1 0.005 2500 0.09351197980255992 0.03597081559696581 0.017126793659776936 0 0 0
314 1 0.005 2500 0.0024997449763890646 0.038471732534904615 0.016180401757120075 0 0 0
367 1 0.005 2500 0.011056093043750395 0.03666067976683836 0.018583986047028676 0 0 0
1680 1 0.005 2500 0.017766535129093115 0.0366806441929279 0.018296054011130724 0 0 0
653 1 0.005 2500 0.02305602917771993 0.03872511174578461 0.019157378981223255 0 0 0
616 1 0.005 2500 0.028040437560686922 0.039042328641295934 0.018930093813410886 0 0 0
1307 1 0.005 2500 0.032370230985939046 0.03655664295025608 0.0186653576188373 0 0 0
235 1 0.005 2500 0.04244550123637344 0.03665838424510565 0.01990707414600182 0 0 0
779 1 0.005 2500 0.047158032608937986 0.03695865770292312 0.01826433839745698 0 0 0
174 1 0.005 2500 0.05356455928523057 0.039411118602297235 0.01938409936225756 0 0 0
1295 1 0.005 2500 0.0664990190891835 0.036094523967101146 0.018767839732460736 0 0 0
11 1 0.005 2500 0.07544190586445595 0.038142914979131866 0.019064891087811085 0 0 0
487 1 0.005 2500 0.08253930446351096 0.039885031651637676 0.01852831853133049 0 0 0
548 1 0.005 2500 0.08985791583507272 0.038765557485057965 0.019083666712677 0 0 0
690 1 0.005 2500 0.0047066499124607895 0.041524445470972976 0.019467727905661605 0 0 0
1118 1 0.005 2500 0.011022172518252443 0.04145065653665659 0.017151521951294168 0 0 0
129 1 0.005 2500 0.01905708974483123 0.04169450115966425 0.019590395591068135 0 0 0
148 1 0.005 2500 0.032273049467017055 0.04142624759292178 0.0175022222597306 0 0 0
547 1 0.005 2500 0.04021818119956969 0.04046629297303706 0.017554451812981126 0 0 0
562 1 0.005 2500 0.049395094312741555 0.04138540136068239 0.017456939551686784 0 0 0
20 1 0.005 2500 0.05526415307252241 0.043366247736966464 0.016841337198370724 0 0 0
627 1 0.005 2500 0.059287884215036515 0.042750802393563055 0.019744243691530453 0 0 0
1019 1 0.005 2500 0.06354187544965512 0.04012377699022565 0.019732153349356654 0 0 0
173 1 0.005 2500 0.06584186817524461 0.042682209565159425 0.016005128068597666 0 0 0
1443 1 0.005 2500 0.06938581847717674 0.04050876891595047 0.018782519574262916 0 0 0
725 1 0.005 2500 0.0783204453593632 0.041297102162697344 0.016247553349230143 0 0 0
712 1 0.005 2500 0.08680048234240861 0.04270969304906431 0.019383055349697736 0 0 0
1329 1 0.005 2500 0.09336318411472665 0.04169142887719465 0.017046571912644692 0 0 0
788 1 0.005 2500 0.008018615594741133 0.04517066429066717 0.018612487207434667 0 0 0
1320 1 0.005 2500 0.01419762496884108 0.04547324043083449 0.01652236459120085 0 0 0
333 1 0.005 2500 0.02115182153609014 0.0459908131956803 0.018123394555427764 0 0 0
158 1 0.005 2500 0.02901945304372378 0.044697122468328215 0.019429676102012686 0 0 0
264 1 0.005 2500 0.03691424536989394 0.04406571219905 0.018614399302933623 0 0 0
812 1 0.005 2500 0.04356876586911579 0.04405610422420407 0.01661428500590816 0 0 0
539 1 0.005 2500 0.04641202172048193 0.047246907214212264 0.01935586950192154 0 0 0
152 1 0.005 2500 0.0633570665007201 0.04560609416912857 0.019209704697815414 0 0 0
206 1 0.005 2500 0.06835164379768788 0.045428370173625124 0.019345775996095483 0 0 0
746 1 0.005 2500 0.07558098963526104 0.045300234490015696 0.01745883625617316 0 0 0
424 1 0.005 2500 0.0802520276656115 0.046850043062576056 0.018339943412000195 0 0 0
791 1 0.005 2500 0.08541508263488305 0.04793416446054136 0.018712400961344692 0 0 0
860 1 0.005 2500 0.09022982758882224 0.04659343849208116 0.018834033000218735 0 0 0
83 1 0.005 2500 0.0956488178501234 0.04571117166231242 0.01901014313424755 0 0 0
1639 1 0.005 2500 0.0024999017523709478 0.05014712376653946 0.01621253955485442 0 0 0
785 1 0.005 2500 0.006588028313770507 0.04986786026127338 0.01955302175040592 0 0 0
659 1 0.005 2500 0.01088942799760042 0.049470451436415534 0.01695178581808966 0 0 0
226 1 0.005 2500 0.01749617871907961 0.049202706045572045 0.01697731797418024 0 0 0
1182 1 0.005 2500 0.021332409128306026 0.050691627561364826 0.01981681190540899 0 0 0
1299 1 0.005 2500 0.02558929308781653 0.04824243693204904 0.0186089493959214 0 0 0
756 1 0.005 2500 0.028811191575679032 0.051832568526616024 0.019922617496793013 0 0 0
181 1 0.005 2500 0.03220992324342221 0.048421388496420005 0.018456708826215442 0 0 0
156 1 0.005 2500 0.03693529811762646 0.04887370309918589 0.01688672799827667 0 0 0
621 1 0.005 2500 0.04153343942900956 0.048119618576865676 0.018697891838503164 0 0 0
1612 1 0.005 2500 0.05130659396846727 0.04826226896488158 0.019448233698468747 0 0 0
824 1 0.005 2500 0.06036195619140954 0.049607423388340365 0.019317472804537376 0 0 0
732 1 0.005 2500 0.06547911766643845 0.05066816225884262 0.018357512060815196 0 0 0
704 1 0.005 2500 0.07082653161918692 0.04959612978168757 0.018120954170149882 0 0 0
531 1 0.005 2500 0.07558217700587655 0.049860880263536515 0.019640729672791974 0 0 0
766 1 0.005 2500 0.08185367322969386 0.05190166421058441 0.01812081380400012 0 0 0
58 1 0.005 2500 0.0958326386637281 0.050923858807253905 0.019343281183473667 0 0 0
286 1 0.005 2500 0.006540112912964436 0.05470011029379006 0.018271351935982807 0 0 0
787 1 0.005 2500 0.019707894455504343 0.05561751915694602 0.01987264990291087 0 0 0
758 1 0.005 2500 0.02457734394395742 0.05449080277837389 0.019997700179997187 0 0 0
1313 1 0.005 2500 0.03133751511528549 0.05409279327665277 0.016247940714122094 0 0 0
962 1 0.005 2500 0.035491673090370525 0.05290238280931702 0.019471770903205357 0 0 0
1391 1 0.005 2500 0.040321363403163425 0.05560300702427866 0.018806859436229794 0 0 0
576 1 0.005 2500 0.048734361646756194 0.05257067909872702 0.019257083644988626 0 0 0
731 1 0.005 2500 0.05261083934788718 0.055653486960168516 0.018535456631784596 0 0 0
676 1 0.005 2500 0.056889663850957235 0.05320386410323621 0.019362314954921116 0 0 0
393 1 0.005 2500 0.06170196829032174 0.05438401184973589 0.01869698459839047 0 0 0
538 1 0.005 2500 0.06800438948406262 0.05501999763329508 0.018599299969482383 0 0 0
637 1 0.005 2500 0.0771035644606423 0.05526197084336917 0.018676702088094535 0 0 0
130 1 0.005 2500 0.08769711940479892 0.0523962302701297 0.018280657153324727 0 0 0
79 1 0.005 2500 0.09314422001131668 0.055400465876118056 0.01769112631999636 0 0 0
610 1 0.005 2500 0.0026433186105779974 0.057471987598680614 0.01973119333845779 0 0 0
819 1 0.005 2500 0.006795590021763493 0.05968501794246679 0.017988532638101094 0 0 0
416 1 0.005 2500 0.013656868603796732 0.05770734947621031 0.01855542849293509 0 0 0
572 1 0.005 2500 0.022785414919371277 0.059551916865593336 0.019544818535205625 0 0 0
522 1 0.005 2500 0.02740235783516889 0.057123006212823464 0.016821865170393115 0 0 0
672 1 0.005 2500 0.03139155131942716 0.05999254972258676 0.01774424391720156 0 0 0
990 1 0.005 2500 0.03568204126588374 0.0579651144455565 0.01934498017464709 0 0 0
336 1 0.005 2500 0.044322208376011356 0.059390852251239495 0.016655321122275 0 0 0
1896 1 0.005 2500 0.057950017176720124 0.058379157839780656 0.018854451677813893 0 0 0
1046 1 0.005 2500 0.06381426906115495 0.0588597119232363 0.019402090953167715 0 0 0
584 1 0.005 2500 0.07326385663618705 0.05846473806260438 0.018681104822076182 0 0 0
797 1 0.005 2500 0.07837977774205056 0.059959032045570466 0.019818481770897678 0 0 0
1464 1 0.005 2500 0.08233790037290822 0.05706210938932883 0.018653243881014407 0 0 0
790 1 0.005 2500 0.0871926107781292 0.0573364510089188 0.017490643101656482 0 0 0
71 1 0.005 2500 0.0028914458454509383 0.062495006093918344 0.01981515600318024 0 0 0
519 1 0.005 2500 0.013562440995950624 0.06282808020883218 0.019881001140487756 0 0 0
56 1 0.005 2500 0.016660390214806798 0.06350350435011705 0.016000401756913488 0 0 0
411 1 0.005 2500 0.017834459166766473 0.060245306587886335 0.019606291263999737 0 0 0
1021 1 0.005 2500 0.04015807101393912 0.060651467833528976 0.019117869998036177 0 0 0
1531 1 0.005 2500 0.04807027891092607 0.060187509067701185 0.019918693989244708 0 0 0
38 1 0.005 2500 0.05678438422248673 0.06355514214085455 0.01949979730912539 0 0 0
1657 1 0.005 2500 0.06563905247739137 0.06349199990982655 0.01894951620963446 0 0 0
649 1 0.005 2500 0.07230445296045258 0.0632964247826043 0.019536355038921722 0 0 0
480 1 0.005 2500 0.08819234456587825 0.06195667427740915 0.01911914367594491 0 0 0
587 1 0.005 2500 0.09402117570776998 0.06123589688764255 0.019172376632400037 0 0 0
329 1 0.005 2500 0.0024996827447990853 0.06747909169346879 0.019870795930265514 0 0 0
150 1 0.005 2500 0.007521009900646419 0.06450232241867643 0.016864991101505026 0 0 0
119 1 0.005 2500 0.02178975328939346 0.06648969476655443 0.017661871679868615 0 0 0
322 1 0.005 2500 0.02596191260171919 0.06441705718222707 0.019476371974466767 0 0 0
57 1 0.005 2500 0.0335784402479288 0.06409457105206076 0.01958505837988333 0 0 0
405 1 0.005 2500 0.0384216156370572 0.06532830751054533 0.019450461482785116 0 0 0
1349 1 0.005 2500 0.04526991044837344 0.06409668919371415 0.018551260212342265 0 0 0
826 1 0.005 2500 0.05059894950761491 0.06486433516281521 0.01804103910296113 0 0 0
54 1 0.005 2500 0.06909077551013852 0.06710389841662945 0.019122256199271784 0 0 0
165 1 0.005 2500 0.07383200115609674 0.06793793846859997 0.0177734446988602 0 0 0
1071 1 0.005 2500 0.07749365498391109 0.06454219521051839 0.018027845172255343 0 0 0
1107 1 0.005 2500 0.08247697080126792 0.06435340402927014 0.017673138425468075 0 0 0
433 1 0.005 2500 0.08669915602674341 0.06672949281585772 0.01890810399442654 0 0 0
1399 1 0.005 2500 0.0916017534790103 0.06556424499649335 0.01852117870298029 0 0 0
1828 1 0.005 2500 0.0975005037835587 0.06779891067258223 0.018228902239945517 0 0 0
1012 1 0.005 2500 0.010190286502724657 0.070833047416303 0.016953871902257573 0 0 0
670 1 0.005 2500 0.014594716974870048 0.06843776036546108 0.01848039046490418 0 0 0
475 1 0.005 2500 0.026256076354741028 0.0680188888190525 0.01601648497417879 0 0 0
565 1 0.005 2500 0.024382217817818987 0.07061441716851638 0.019857076216558314 0 0 0
846 1 0.005 2500 0.031953318550795896 0.06952303267173923 0.01601190079068172 0 0 0
762 1 0.005 2500 0.03494492808324681 0.0719160715736941 0.019224121526075787 0 0 0
415 1 0.005 2500 0.04232765978117678 0.06834221148891648 0.01863980578803968 0 0 0
376 1 0.005 2500 0.04728638280573521 0.06862355656209321 0.0192136055067412 0 0 0
1063 1 0.005 2500 0.05374898212683051 0.06853783028645306 0.01929616737908607 0 0 0
217 1 0.005 2500 0.05872751970468707 0.06816114202586004 0.019562262608693516 0 0 0
92 1 0.005 2500 0.06371555136915305 0.06801448333761648 0.01986602843623486 0 0 0
1467 1 0.005 2500 0.07091494652528939 0.07175839768242434 0.01915074363379204 0 0 0
428 1 0.005 2500 0.07895532139247578 0.06931079611485218 0.01768091147909804 0 0 0
368 1 0.005 2500 0.08362553158411118 0.07067269442504408 0.018918212579765864 0 0 0
665 1 0.005 2500 0.09326212724783164 0.07042764158014676 0.018582068722321432 0 0 0
767 1 0.005 2500 0.003020873680993525 0.07244900946206181 0.019718870063467495 0 0 0
160 1 0.005 2500 0.009733559559779753 0.07579461826022019 0.016540169608455686 0 0 0
643 1 0.005 2500 0.013398601107715276 0.07325556594395556 0.019925877656479532 0 0 0
478 1 0.005 2500 0.017972872631758074 0.07208153044155383 0.01792900367020873 0 0 0
578 1 0.005 2500 0.023987165481394068 0.0753924963082072 0.01679427431486272 0 0 0
1479 1 0.005 2500 0.028104397176457973 0.07256244373764296 0.016982666783059815 0 0 0
782 1 0.005 2500 0.044626403072537624 0.07283855488222822 0.01960865014135635 0 0 0
437 1 0.005 2500 0.05056492953694865 0.07250179742305388 0.01937729020337416 0 0 0
651 1 0.005 2500 0.05545377570468437 0.07318257846521423 0.018581548104159122 0 0 0
185 1 0.005 2500 0.061652879503656 0.07549135996589916 0.018035612042905297 0 0 0
604 1 0.005 2500 0.06558894038893186 0.07257369347040059 0.019031850017859557 0 0 0
1303 1 0.005 2500 0.0804538923605518 0.07403301365344121 0.01700972776516769 0 0 0
2088 1 0.005 2500 0.08839118472000863 0.07221080806787271 0.01842580963230227 0 0 0
200 1 0.005 2500 0.005220366484628425 0.07708858534631736 0.019101300017503264 0 0 0
772 1 0.005 2500 0.012207858073539078 0.0792360431767742 0.019191635426871318 0 0 0
980 1 0.005 2500 0.016524311952461797 0.07684390322130671 0.018392671854733582 0 0 0
408 1 0.005 2500 0.029984551854980068 0.07634371841686435 0.019659184782514653 0 0 0
95 1 0.005 2500 0.03728012150081691 0.07609522118946298 0.016069589075368478 0 0 0
714 1 0.005 2500 0.03981727148817489 0.07995330300418428 0.017985611871342986 0 0 0
96 1 0.005 2500 0.04770861596685042 0.07609820091228248 0.017401697769500582 0 0 0
957 1 0.005 2500 0.05081698141401857 0.07970314129153162 0.018931512094392908 0 0 0
27 1 0.005 2500 0.05510274647689458 0.07793252440342298 0.017063633399972754 0 0 0
611 1 0.005 2500 0.0649291356243667 0.07925241908558289 0.017696100073477616 0 0 0
854 1 0.005 2500 0.06888082711238633 0.07631870627181173 0.01939822698021824 0 0 0
479 1 0.005 2500 0.07415052760027854 0.07779923875795854 0.016637495468859172 0 0 0
16 1 0.005 2500 0.07891850745137818 0.07872170465235333 0.017825319841363867 0 0 0
740 1 0.005 2500 0.08638022513253442 0.07744237038189736 0.01951600421439027 0 0 0
1142 1 0.005 2500 0.09121230764608755 0.07630957427223252 0.01891195948832106 0 0 0
339 1 0.005 2500 0.09750084075795372 0.07895982144327962 0.01800277283794771 0 0 0
126 1 0.005 2500 0.002499455692360288 0.08119702712148591 0.018256612056568537 0 0 0
1272 1 0.005 2500 0.010655561280383249 0.08333497272758668 0.01678712933968224 0 0 0
337 1 0.005 2500 0.01661036667996449 0.08183425702693346 0.018683262325010396 0 0 0
240 1 0.005 2500 0.024436655947125657 0.08020269128595447 0.01810720699060574 0 0 0
1204 1 0.005 2500 0.03459656024132782 0.08191218307419439 0.01911188245437682 0 0 0
67 1 0.005 2500 0.043017867072692374 0.08362002756202358 0.01912805301787072 0 0 0
1239 1 0.005 2500 0.055490971105092754 0.08270712626668308 0.018494523480122798 0 0 0
626 1 0.005 2500 0.060337324286252915 0.08142689683477393 0.018558066452954602 0 0 0
837 1 0.005 2500 0.07243964467642597 0.08246765441057785 0.01716057057478173 0 0 0
459 1 0.005 2500 0.07707260907171466 0.08324890876213775 0.01886879999015315 0 0 0
908 1 0.005 2500 0.08324365110994468 0.08133589633003407 0.019510598832339604 0 0 0
154 1 0.005 2500 0.08877045200410809 0.0831852217157553 0.017299289023032655 0 0 0
221 1 0.005 2500 0.0024997899930012477 0.08589330581987696 0.01654170501379587 0 0 0
715 1 0.005 2500 0.01233665325137127 0.08685521851348987 0.01991361137028385 0 0 0
80 1 0.005 2500 0.0208358825879036 0.08499563662369354 0.01741225791679982 0 0 0
99 1 0.005 2500 0.02575591343822135 0.08514919341262442 0.0182864755621838 0 0 0
702 1 0.005 2500 0.030786638688438825 0.0850902561032609 0.018494080070416575 0 0 0
933 1 0.005 2500 0.034837136231323125 0.08798439667057226 0.01895357045818294 0 0 0
667 1 0.005 2500 0.03840503618798698 0.08476413954118933 0.017577080249565086 0 0 0
557 1 0.005 2500 0.04701524022463035 0.08437566900370272 0.016222376998647845 0 0 0
343 1 0.005 2500 0.05051788031984943 0.08462086658390305 0.01978130046448782 0 0 0
857 1 0.005 2500 0.054561345664696795 0.0876557300060436 0.016736661730250024 0 0 0
285 1 0.005 2500 0.06387308353619311 0.08496066568025082 0.018478071134907174 0 0 0
419 1 0.005 2500 0.06892257007979258 0.08704560679812545 0.01972316934022639 0 0 0
1159 1 0.005 2500 0.07253944668735253 0.08738832296037524 0.01628440877294616 0 0 0
1201 1 0.005 2500 0.08449483159899415 0.08576371928926935 0.017065345255099763 0 0 0
485 1 0.005 2500 0.09251625499426672 0.08630473176153423 0.016187787614107836 0 0 0
571 1 0.005 2500 0.002499217136446841 0.09076332940318638 0.01767140956356623 0 0 0
279 1 0.005 2500 0.007043528996882185 0.09185457171501636 0.01944771091098593 0 0 0
43 1 0.005 2500 0.008458020575611534 0.08820131444644157 0.016341481799575844 0 0 0
1339 1 0.005 2500 0.016993123021990297 0.08836764908906707 0.01890299416551059 0 0 0
1004 1 0.005 2500 0.021838375269439225 0.08936529260038835 0.019624903398048784 0 0 0
84 1 0.005 2500 0.026332711452184954 0.0900603745425638 0.017549427646681152 0 0 0
523 1 0.005 2500 0.043417909119564335 0.08846191525088783 0.017395302648452782 0 0 0
400 1 0.005 2500 0.04838317720535337 0.08904764445170144 0.01736253108630411 0 0 0
180 1 0.005 2500 0.05244983158378331 0.09186525261237476 0.01841551650775582 0 0 0
623 1 0.005 2500 0.0591509845108975 0.0900167208095053 0.01674543726020041 0 0 0
697 1 0.005 2500 0.06608592844465955 0.09121121265198871 0.019461362745441576 0 0 0
759 1 0.005 2500 0.07103936782256905 0.09168076240504217 0.018363190667971867 0 0 0
929 1 0.005 2500 0.08132979437291996 0.08879640928375657 0.019468725607107853 0 0 0
1594 1 0.005 2500 0.08825806069556999 0.08920730272796273 0.01675651995358814 0 0 0
952 1 0.005 2500 0.09312997293449271 0.09037368101918847 0.019027151424166163 0 0 0
586 1 0.005 2500 0.017074836817912865 0.09331753697113807 0.01983412774855414 0 0 0
26 1 0.005 2500 0.022513080870121396 0.09314015598282979 0.016397705117580312 0 0 0
232 1 0.005 2500 0.027867819675015608 0.09468567308090772 0.018665114999299345 0 0 0
580 1 0.005 2500 0.03452200691262291 0.0929686076917628 0.01872648019876189 0 0 0
816 1 0.005 2500 0.04216857422036139 0.09282157237179217 0.01957686780887562 0 0 0
599 1 0.005 2500 0.07895438768749805 0.09274169878711593 0.017523531270969308 0 0 0
315 1 0.005 2500 0.08581845374135973 0.09304209726375486 0.01922785238819013 0 0 0
809 1 0.005 2500 0.09750049095485347 0.09266450995806381 0.018223944913577587 0 0 0
330 1 0.005 2500 0.0068285735802928885 0.09718243329258097 0.01767120868657651 0 0 0
401 1 0.005 2500 0.015669653554812278 0.09750043701302274 0.0174828780460362 0 0 0
652 1 0.005 2500 0.023148353071013393 0.0975002943110908 0.01945960823601634 0 0 0
132 1 0.005 2500 0.03884705383261119 0.0974642362773114 0.019785008137852698 0 0 0
1025 1 0.005 2500 0.04957612928523128 0.09725519753128974 0.01874034874842376 0 0 0
765 1 0.005 2500 0.054524464935340376 0.09641382842493586 0.018345191228755338 0 0 0
327 1 0.005 2500 0.05960305625331579 0.09750016383286042 0.018187720242948527 0 0 0
617 1 0.005 2500 0.06433491003620805 0.09750041783739877 0.01980161862898526 0 0 0
558 1 0.005 2500 0.07169428615394337 0.09750049475562703 0.017670753251883484 0 0 0
1036 1 0.005 2500 0.07668832586152155 0.09748236464106623 0.01790304001948056 0 0 0
831 1 0.005 2500 0.08150956005041468 0.09750062793726977 0.019226169014986475 0 0 0
733 1 0.005 2500 0.08805445958167948 0.09750030511975083 0.019575200933147283 0 0 0
1509 1 0.005 2500 0.09305058914392432 0.09750033414556057 0.019748820007055398 0 0 0
1112 1 0.005 2500 0.0975002351571454 0.09750100703256266 0.01696070058737896 0 0 0
738 1 0.005 2500 0.0033750736264225437 0.0024997532860147917 0.021832392332900175 0 0 0
86 1 0.005 2500 0.012397557986399582 0.0024997846898590064 0.02113631989145181 0 0 0
144 1 0.005 2500 0.019589452640240184 0.0025961104374881473 0.022426837936186744 0 0 0
107 1 0.005 2500 0.046060830655878196 0.0024997494732585633 0.021702059091311218 0 0 0
743 1 0.005 2500 0.0553871853545334 0.0024999811861627246 0.020786638722644326 0 0 0
869 1 0.005 2500 0.0631790338812975 0.0024998170501701264 0.020432435637116768 0 0 0
1127 1 0.005 2500 0.07980216279199903 0.0024997412885124732 0.022882549035084954 0 0 0
647 1 0.005 2500 0.09316632804582904 0.002499907442165718 0.021733862122930447 0 0 0
211 1 0.005 2500 0.004303681012187386 0.007347370529418006 0.022630068022652383 0 0 0
727 1 0.005 2500 0.011105436520859898 0.007247377237974091 0.020248589366671156 0 0 0
22 1 0.005 2500 0.008470809989946095 0.0048136313102901 0.023731913780746655 0 0 0
771 1 0.005 2500 0.015784933005925948 0.0062114561874328875 0.02167275098384059 0 0 0
24 1 0.005 2500 0.02105377929895593 0.006856340990179218 0.02025753874665369 0 0 0
467 1 0.005 2500 0.06597943907663058 0.005345228511738973 0.02344244439245818 0 0 0
674 1 0.005 2500 0.07278433009171498 0.0055710626421207185 0.023269159881286028 0 0 0
506 1 0.005 2500 0.08102154441199859 0.007253726775611265 0.021928795624951862 0 0 0
418 1 0.005 2500 0.08603513384587211 0.004908371477523885 0.02338099176537604 0 0 0
751 1 0.005 2500 0.09005333296978567 0.007395132356301013 0.021157794440425003 0 0 0
251 1 0.005 2500 0.09750038130006473 0.004336479807053485 0.0238917977748492 0 0 0
1385 1 0.005 2500 0.05704816692790663 0.009960470879661532 0.021932986355574075 0 0 0
656 1 0.005 2500 0.06669845695405237 0.010455560205451738 0.021625069536028725 0 0 0
321 1 0.005 2500 0.07484617090782224 0.010125567775104817 0.023320186728925604 0 0 0
303 1 0.005 2500 0.08548347692915721 0.00941863674073699 0.021295542622741286 0 0 0
304 1 0.005 2500 0.0975003466495805 0.011352413827812158 0.023096980119293623 0 0 0
545 1 0.005 2500 0.0027838409663520783 0.014319822560548347 0.021959514851599967 0 0 0
413 1 0.005 2500 0.0071523593019771235 0.015910181015563116 0.020119422870076013 0 0 0
1323 1 0.005 2500 0.0212820685223064 0.012957425275998394 0.020661937575053 0 0 0
722 1 0.005 2500 0.0313110337079548 0.01417839824004302 0.020792047820532022 0 0 0
540 1 0.005 2500 0.05377569441820922 0.013701867371920369 0.02081639268120546 0 0 0
457 1 0.005 2500 0.07070284943759389 0.01292406588198964 0.023318725276939553 0 0 0
1261 1 0.005 2500 0.07915120085868262 0.013508433327974542 0.022829467248456144 0 0 0
396 1 0.005 2500 0.08940598850227215 0.012079924573395696 0.022884829549514703 0 0 0
49 1 0.005 2500 0.0024999231519867563 0.018946364276693897 0.020085572920697133 0 0 0
222 1 0.005 2500 0.02632378748342967 0.017450810996892316 0.022446757385636253 0 0 0
1347 1 0.005 2500 0.03592067440343597 0.01577518640131233 0.021887881808603304 0 0 0
124 1 0.005 2500 0.05693935912344312 0.017853445780114854 0.020563037756929713 0 0 0
6 1 0.005 2500 0.06345206257232398 0.01979840573661519 0.02106881561029454 0 0 0
378 1 0.005 2500 0.07085936609463528 0.01912683945223775 0.02215975964136742 0 0 0
203 1 0.005 2500 0.081465699088103 0.018415352563174663 0.021829185825373874 0 0 0
112 1 0.005 2500 0.08868636190447816 0.01695440181934921 0.022037176226209838 0 0 0
188 1 0.005 2500 0.09310880144891667 0.018722107050872773 0.023558363358546042 0 0 0
629 1 0.005 2500 0.09750039370671881 0.016332570758580647 0.02353914853574832 0 0 0
1187 1 0.005 2500 0.00656069252257433 0.02011587492249256 0.02275794881251377 0 0 0
466 1 0.005 2500 0.015314546501194818 0.02192024570916534 0.021399043467382594 0 0 0
159 1 0.005 2500 0.02057928657412333 0.020457494713807072 0.021773447631975668 0 0 0
331 1 0.005 2500 0.03241509490015083 0.021543885571579158 0.022621018132279645 0 0 0
128 1 0.005 2500 0.06803100179717186 0.02323791999399784 0.021849426970369987 0 0 0
296 1 0.005 2500 0.07634951530971931 0.023847354668424872 0.020337397110841503 0 0 0
68 1 0.005 2500 0.08337154698170471 0.023006309410473248 0.02113427522570494 0 0 0
153 1 0.005 2500 0.08933708914934808 0.022202309740794037 0.023026959428452058 0 0 0
63 1 0.005 2500 0.0975002756550746 0.022579665471968987 0.0224937696902963 0 0 0
360 1 0.005 2500 0.0024999299702908244 0.02591652985013208 0.02034785847295236 0 0 0
201 1 0.005 2500 0.015119895834322397 0.027637306842033017 0.020035863171935606 0 0 0
1494 1 0.005 2500 0.023184463175092426 0.025735678743042698 0.020443980028818167 0 0 0
214 1 0.005 2500 0.028767887860171364 0.024903765883077585 0.020440726150323565 0 0 0
13 1 0.005 2500 0.03713773358344167 0.02428030801404069 0.022630796748063415 0 0 0
680 1 0.005 2500 0.06240780269514241 0.024829661810855837 0.020851458722171673 0 0 0
678 1 0.005 2500 0.0696204541540374 0.02792708631320292 0.02115442258741615 0 0 0
47 1 0.005 2500 0.08841489039322813 0.02709769732029838 0.023454551605730473 0 0 0
570 1 0.005 2500 0.09391669522928507 0.02595523103353473 0.023364987710199587 0 0 0
544 1 0.005 2500 0.09750006106112939 0.027914074833013447 0.020004600546751926 0 0 0
801 1 0.005 2500 0.023366239114045496 0.031552275764885236 0.022205093780335625 0 0 0
161 1 0.005 2500 0.03186486665044407 0.02917213414287067 0.021348174660855958 0 0 0
561 1 0.005 2500 0.050438529638680854 0.03140287825217284 0.02035457658988315 0 0 0
272 1 0.005 2500 0.07642937453660768 0.028846330261499402 0.020327823181808452 0 0 0
417 1 0.005 2500 0.08110095408412522 0.0306125436796562 0.020562840731361606 0 0 0
630 1 0.005 2500 0.0876467833835901 0.03163509641512887 0.0208149249535187 0 0 0
496 1 0.005 2500 0.09200449794509737 0.030574297228817097 0.023297493479380035 0 0 0
775 1 0.005 2500 0.014553476170056373 0.03478015408213594 0.021622062585270205 0 0 0
297 1 0.005 2500 0.036513506165080485 0.03432605729586418 0.020357997081573296 0 0 0
338 1 0.005 2500 0.07080034631087664 0.0328065138826727 0.020681049607925318 0 0 0
77 1 0.005 2500 0.0748637873110428 0.03483659510999333 0.02277055888830856 0 0 0
609 1 0.005 2500 0.08295241833897563 0.034637844225265876 0.02287965545355118 0 0 0
36 1 0.005 2500 0.09295342862349215 0.03532240069717744 0.022052357700210374 0 0 0
170 1 0.005 2500 0.09750013017482122 0.03419095159484869 0.020306295369594683 0 0 0
628 1 0.005 2500 0.0024998092376794286 0.038994249329088196 0.023172386398623252 0 0 0
462 1 0.005 2500 0.007386129135359536 0.03795599598055125 0.021722510335085873 0 0 0
233 1 0.005 2500 0.014484782414648295 0.039829359150299865 0.02037319172491996 0 0 0
1104 1 0.005 2500 0.0361525794882948 0.03940808538420545 0.020264993526051347 0 0 0
162 1 0.005 2500 0.0845855838531826 0.03969771816627725 0.023086041409026023 0 0 0
252 1 0.005 2500 0.08820279729934956 0.03625286828262554 0.02330258693815642 0 0 0
25 1 0.005 2500 0.09594235855213937 0.03894174418107333 0.020330483888332414 0 0 0
720 1 0.005 2500 0.02441564748147613 0.04326435910232151 0.020752127470226936 0 0 0
250 1 0.005 2500 0.041172875059733584 0.04381890340886416 0.0212219947160193 0 0 0
1281 1 0.005 2500 0.04528156544992684 0.041127972380605456 0.02028713226081309 0 0 0
685 1 0.005 2500 0.05168245464552808 0.04363098541572534 0.021294008157463126 0 0 0
619 1 0.005 2500 0.06692336608259893 0.0421296038632457 0.02282073954855021 0 0 0
1341 1 0.005 2500 0.07350532096500906 0.04235873949644132 0.020928117494940186 0 0 0
133 1 0.005 2500 0.07863678180454635 0.041239972258035225 0.021344338048622704 0 0 0
600 1 0.005 2500 0.0916267966245036 0.04268956967997153 0.021627485580341502 0 0 0
769 1 0.005 2500 0.09750027054538293 0.04300816509520891 0.022786609725823446 0 0 0
716 1 0.005 2500 0.0025435364504277536 0.04697523857270804 0.020077080323355558 0 0 0
543 1 0.005 2500 0.012275649136232676 0.044279814539071496 0.02107857551547509 0 0 0
747 1 0.005 2500 0.016942699800498607 0.04605461924469725 0.020821658530433863 0 0 0
518 1 0.005 2500 0.03332146448205551 0.045027214544589855 0.021955688358379348 0 0 0
326 1 0.005 2500 0.03740081532183982 0.04791233938524388 0.02177097763201787 0 0 0
384 1 0.005 2500 0.056120993065325385 0.04707328950846364 0.020084704954589618 0 0 0
442 1 0.005 2500 0.060290648617694904 0.04632585646940997 0.02309249672668881 0 0 0
835 1 0.005 2500 0.07225964105593065 0.04703851885684757 0.02217073031361601 0 0 0
305 1 0.005 2500 0.07728865139831835 0.045964888418394856 0.02226849430043767 0 0 0
546 1 0.005 2500 0.08266860056665078 0.04416229993190821 0.02179437311459465 0 0 0
199 1 0.005 2500 0.08741162117021944 0.04616748503132318 0.022941974910318248 0 0 0
137 1 0.005 2500 0.09365055660064464 0.04688723490525057 0.02343948849526729 0 0 0
97 1 0.005 2500 0.014268711570625637 0.05149919687611062 0.020027968209862163 0 0 0
691 1 0.005 2500 0.027934774620029697 0.048005330172474533 0.02301809074433166 0 0 0
1138 1 0.005 2500 0.03264292132636082 0.05065265633682612 0.022909934615321273 0 0 0
1831 1 0.005 2500 0.044326137344125674 0.051361940460859616 0.021282994554138904 0 0 0
549 1 0.005 2500 0.04856697517017444 0.04972646833775575 0.02336579680261805 0 0 0
382 1 0.005 2500 0.05750454308733652 0.05045785590516986 0.02349480275690149 0 0 0
276 1 0.005 2500 0.06336310989323761 0.05158317157414368 0.022794057750713064 0 0 0
136 1 0.005 2500 0.06858528632811349 0.05141532243171817 0.02220335385807231 0 0 0
106 1 0.005 2500 0.08219083674839019 0.049144708392672515 0.022336551748874847 0 0 0
450 1 0.005 2500 0.09126865365226096 0.05077007157702227 0.02137839050251875 0 0 0
709 1 0.005 2500 0.09750020588391767 0.05003311263014891 0.023971566788141316 0 0 0
115 1 0.005 2500 0.002499789278103748 0.052549891601176686 0.02059700969772485 0 0 0
666 1 0.005 2500 0.010616294876836562 0.054718154722520174 0.02116644487026366 0 0 0
446 1 0.005 2500 0.027361224924396164 0.05588678116555407 0.02390901468103043 0 0 0
45 1 0.005 2500 0.03536557910904268 0.05554983988536544 0.0237111859226792 0 0 0
1114 1 0.005 2500 0.03958466820932858 0.05234580357888157 0.02252765890991283 0 0 0
274 1 0.005 2500 0.05285226300959154 0.0521878604711571 0.022130990260709436 0 0 0
601 1 0.005 2500 0.0657728480659674 0.0559602843401494 0.022973458974441138 0 0 0
1292 1 0.005 2500 0.07254739591323268 0.053782331888614816 0.020280609437134327 0 0 0
566 1 0.005 2500 0.07854987353464069 0.05255887295223348 0.022625979592419028 0 0 0
248 1 0.005 2500 0.08452780279060533 0.053897243798493415 0.021844250591803567 0 0 0
662 1 0.005 2500 0.09750079505185483 0.055569452261974656 0.020137068970896323 0 0 0
1134 1 0.005 2500 0.02756572863193576 0.05992074368507409 0.02096215232606082 0 0 0
118 1 0.005 2500 0.0313046288577073 0.056067965620284384 0.020840706469215996 0 0 0
320 1 0.005 2500 0.039781046311580706 0.05784869419059339 0.0232410384633363 0 0 0
833 1 0.005 2500 0.045050018540619255 0.056241426024900426 0.02046951811391307 0 0 0
593 1 0.005 2500 0.04966226203984225 0.056233148274886714 0.02253143885588191 0 0 0
414 1 0.005 2500 0.05524875521947426 0.056538090951907136 0.02270700076271693 0 0 0
121 1 0.005 2500 0.060208346160603186 0.056088467182860646 0.023153428259067483 0 0 0
1096 1 0.005 2500 0.06867246608212695 0.05972238181491195 0.020208044065847308 0 0 0
427 1 0.005 2500 0.07063521830261504 0.05681190811416228 0.02376807773604737 0 0 0
1434 1 0.005 2500 0.07554772000365864 0.057294052953642004 0.022971823294169986 0 0 0
776 1 0.005 2500 0.08053184389452904 0.05709723561091022 0.02331512222440163 0 0 0
2165 1 0.005 2500 0.08743606195341815 0.057950280965789185 0.022446407614276454 0 0 0
12 1 0.005 2500 0.09223154989186143 0.0565357224582652 0.022473702676966516 0 0 0
567 1 0.005 2500 0.09749737239708903 0.05937324385601702 0.023381472238180927 0 0 0
1181 1 0.005 2500 0.008792866811927648 0.06276920741236154 0.021379035924546208 0 0 0
1150 1 0.005 2500 0.032039478810914006 0.06045171019899238 0.023130100944247195 0 0 0
483 1 0.005 2500 0.03682006295466938 0.06183351362457874 0.02264719965296788 0 0 0
675 1 0.005 2500 0.0444141768963673 0.06029406930575753 0.023327480903119285 0 0 0
655 1 0.005 2500 0.05305507917529671 0.060317946889161485 0.020278610878620693 0 0 0
179 1 0.005 2500 0.05808413083448845 0.06061127114595501 0.02332618484746103 0 0 0
1390 1 0.005 2500 0.06135548632587595 0.0639177070011624 0.021492115859295665 0 0 0
777 1 0.005 2500 0.06526599905089504 0.06135958627452338 0.023481213393253833 0 0 0
783 1 0.005 2500 0.07758373896572697 0.06294853915285165 0.02374589034323477 0 0 0
353 1 0.005 2500 0.0837397642732435 0.06109741545801894 0.021250615131097713 0 0 0
341 1 0.005 2500 0.09103799807287724 0.06133884318182458 0.023183328712371252 0 0 0
356 1 0.005 2500 0.09750044342308063 0.06399357601232043 0.021471297048526784 0 0 0
748 1 0.005 2500 0.004946862032372357 0.06512283198870633 0.023539107880385417 0 0 0
370 1 0.005 2500 0.011772241484133002 0.06683147998851605 0.022281889827843224 0 0 0
509 1 0.005 2500 0.017877592901735625 0.06526936354007049 0.0205256379624999 0 0 0
318 1 0.005 2500 0.029823861793858875 0.06753521871667553 0.020075094717121152 0 0 0
213 1 0.005 2500 0.04231823940941304 0.0647628189570321 0.022531413115808356 0 0 0
151 1 0.005 2500 0.04798062419972515 0.06477524744384612 0.022696891409066184 0 0 0
373 1 0.005 2500 0.05297702491347913 0.06478962311879354 0.022513306813874662 0 0 0
225 1 0.005 2500 0.057584802596070475 0.0660804350162581 0.023962484836545825 0 0 0
1500 1 0.005 2500 0.07443880153462867 0.06665214148199222 0.02256656883825175 0 0 0
273 1 0.005 2500 0.08033342251645166 0.06655386268148605 0.02161754991541834 0 0 0
1534 1 0.005 2500 0.08691389229077619 0.06436631231460796 0.02330900944107469 0 0 0
527 1 0.005 2500 0.09320835639049582 0.06584260658885893 0.02324752586575668 0 0 0
1005 1 0.005 2500 0.007433466142358012 0.06821134029161345 0.02021590965030899 0 0 0
602 1 0.005 2500 0.004566936171146019 0.07009842828797393 0.023851817683629623 0 0 0
355 1 0.005 2500 0.017369687422007757 0.06988490584206174 0.022379609436541843 0 0 0
768 1 0.005 2500 0.034188250851799586 0.06815793663310599 0.022433608570406768 0 0 0
120 1 0.005 2500 0.03901257840800774 0.06945265064299581 0.022214089459520428 0 0 0
195 1 0.005 2500 0.0442771917555286 0.06932164820541178 0.023144976654874302 0 0 0
700 1 0.005 2500 0.05047632734912893 0.06909433438856205 0.02303487994260834 0 0 0
723 1 0.005 2500 0.05508860310980703 0.07133927213468982 0.023214716773747427 0 0 0
760 1 0.005 2500 0.06105169786564579 0.07016697571608181 0.02350852518123446 0 0 0
125 1 0.005 2500 0.0678743574752473 0.07024297777015145 0.022818908728120292 0 0 0
1280 1 0.005 2500 0.07566307269508399 0.07155206192154281 0.020702817574849573 0 0 0
473 1 0.005 2500 0.07989453189313285 0.07122466203950695 0.023345813760609766 0 0 0
395 1 0.005 2500 0.0844544125377918 0.06871721541413377 0.0234442561550869 0 0 0
1094 1 0.005 2500 0.08960749022947627 0.06914304119013384 0.02218131020962696 0 0 0
677 1 0.005 2500 0.0963942925964726 0.07014955503850241 0.022500153481796563 0 0 0
1370 1 0.005 2500 0.00786737323857032 0.07316673332144635 0.020716022571047075 0 0 0
420 1 0.005 2500 0.016473167266958973 0.07545562592580364 0.02319738206839387 0 0 0
987 1 0.005 2500 0.020736248794948262 0.07528659894811744 0.02059105307415353 0 0 0
1351 1 0.005 2500 0.02870616045994673 0.07204626694817066 0.02191904846809791 0 0 0
93 1 0.005 2500 0.03315006111449018 0.07364879509149763 0.023556725619989366 0 0 0
210 1 0.005 2500 0.039455246215853994 0.07392189915010026 0.02001709755777925 0 0 0
563 1 0.005 2500 0.05885443493280857 0.07440940820402234 0.022034926427266257 0 0 0
361 1 0.005 2500 0.06372061054953997 0.07524512106794665 0.02282236862665307 0 0 0
101 1 0.005 2500 0.07462661199469277 0.0755605001673882 0.023505106427970057 0 0 0
117 1 0.005 2500 0.0804576703754944 0.07589399063807707 0.021650086692528214 0 0 0
1556 1 0.005 2500 0.08574839804132468 0.07346604981979628 0.022479994622513978 0 0 0
582 1 0.005 2500 0.09245586222216494 0.07322613641893462 0.02264585574630743 0 0 0
774 1 0.005 2500 0.09750028467450962 0.07446830861746143 0.020236538785014198 0 0 0
936 1 0.005 2500 0.0034076048782330044 0.07972069994781779 0.022946191344416736 0 0 0
404 1 0.005 2500 0.008802850182390807 0.07773117863799017 0.022528900808457583 0 0 0
364 1 0.005 2500 0.02540105464416925 0.07676837662196694 0.021610396649735956 0 0 0
1548 1 0.005 2500 0.0348825750021569 0.07707546509195823 0.020345942915663235 0 0 0
1438 1 0.005 2500 0.039971106451819186 0.0772024499884922 0.023754261487901975 0 0 0
37 1 0.005 2500 0.04361882952879926 0.07768536398557153 0.02030991802999938 0 0 0
1508 1 0.005 2500 0.04805221409847805 0.07662132473535749 0.022362037754579865 0 0 0
1560 1 0.005 2500 0.05299308721525238 0.07618175955866957 0.02173536071084221 0 0 0
74 1 0.005 2500 0.0570792361922839 0.07905467878106356 0.02151685245352606 0 0 0
138 1 0.005 2500 0.06784713231847858 0.07851455900901774 0.02376930522721945 0 0 0
197 1 0.005 2500 0.0724715945896507 0.07936420822101924 0.021079773708716207 0 0 0
828 1 0.005 2500 0.0772699685941627 0.0797316153334078 0.022435770720315874 0 0 0
141 1 0.005 2500 0.08400583944629345 0.07874539876241522 0.02371848091116323 0 0 0
385 1 0.005 2500 0.08950167238541272 0.07764392112210834 0.023416347665729493 0 0 0
196 1 0.005 2500 0.094749106517053 0.07766249570515418 0.02292407260790209 0 0 0
288 1 0.005 2500 0.0072206155165156945 0.08201384777260867 0.020423431743254835 0 0 0
347 1 0.005 2500 0.013517165242414404 0.08274483731263092 0.022503764573862002 0 0 0
178 1 0.005 2500 0.020572727476146257 0.08023600759905095 0.021279395693848326 0 0 0
190 1 0.005 2500 0.028679647685924948 0.08107678788069159 0.020602612701688783 0 0 0
358 1 0.005 2500 0.03270903476537632 0.08036911050667829 0.023476727536443698 0 0 0
32 1 0.005 2500 0.038738423579372946 0.08187541242308087 0.022473067529575796 0 0 0
1255 1 0.005 2500 0.046853583709133124 0.08141260870265292 0.021453976684817234 0 0 0
1554 1 0.005 2500 0.05153684770017233 0.08050451025308951 0.023813712370634788 0 0 0
688 1 0.005 2500 0.05522483099707218 0.08384918758680664 0.023354731320146628 0 0 0
246 1 0.005 2500 0.06336351468218236 0.08020926129196566 0.022346860274795925 0 0 0
581 1 0.005 2500 0.06039323948052824 0.0839910127465225 0.023715419324605753 0 0 0
1082 1 0.005 2500 0.06830151434680062 0.08197476028814157 0.020188978563839357 0 0 0
294 1 0.005 2500 0.08291310124176096 0.08385826142223145 0.023917249801510828 0 0 0
31 1 0.005 2500 0.08736834133178246 0.08256003394076543 0.022057314256943173 0 0 0
493 1 0.005 2500 0.09186814634202137 0.08098745510492708 0.02054974073120505 0 0 0
204 1 0.005 2500 0.09657535786117892 0.08229716756263421 0.02160789567123174 0 0 0
94 1 0.005 2500 0.0024993578954844043 0.08734985959966873 0.021324284740680568 0 0 0
795 1 0.005 2500 0.0074778638794750114 0.08696294303987394 0.021085294948399728 0 0 0
262 1 0.005 2500 0.018814174072064264 0.08487508305973897 0.02198335900872379 0 0 0
163 1 0.005 2500 0.025059811519743833 0.08685980420690957 0.022932405852835052 0 0 0
383 1 0.005 2500 0.029994104179260083 0.08590992737443581 0.023361997944501455 0 0 0
763 1 0.005 2500 0.03490478425083291 0.08504152515432256 0.022998705402580234 0 0 0
41 1 0.005 2500 0.04224993122151608 0.08517022852580237 0.02381882076442746 0 0 0
100 1 0.005 2500 0.04625595021673978 0.08676906988394514 0.021271340187076798 0 0 0
644 1 0.005 2500 0.057961525651622936 0.0866750670833018 0.020268836203650435 0 0 0
724 1 0.005 2500 0.06531863080552187 0.08471954012889649 0.023258049535971086 0 0 0
377 1 0.005 2500 0.07027334587352202 0.08470003335817838 0.0239267325852028 0 0 0
1066 1 0.005 2500 0.0739167174383726 0.08648521790684886 0.021004853597185253 0 0 0
524 1 0.005 2500 0.07861513538538047 0.08609256122753634 0.022680342001361573 0 0 0
1188 1 0.005 2500 0.08632298059080383 0.08784123195037516 0.021228991765118606 0 0 0
379 1 0.005 2500 0.0909253073083961 0.08589093612342677 0.020909151424167757 0 0 0
1511 1 0.005 2500 0.09750048232872695 0.0870786345749119 0.02047889267840235 0 0 0
497 1 0.005 2500 0.009258702656408636 0.09079009068184284 0.023801172584019006 0 0 0
219 1 0.005 2500 0.01410618833541388 0.08956827622906577 0.02372192621066511 0 0 0
784 1 0.005 2500 0.019104999002616186 0.08952063764917345 0.02380798639984933 0 0 0
253 1 0.005 2500 0.026085349792010108 0.09170732247311986 0.022263422521874028 0 0 0
23 1 0.005 2500 0.030446972550828164 0.08990142119771964 0.020385269203879314 0 0 0
744 1 0.005 2500 0.03434859947661627 0.08998365654905766 0.023510234838845328 0 0 0
113 1 0.005 2500 0.03952974719747199 0.08868332612082316 0.020530302284400805 0 0 0
460 1 0.005 2500 0.04327014215512725 0.09005955743976646 0.023595909294182666 0 0 0
726 1 0.005 2500 0.053422330507504244 0.08821455997362505 0.021690276700204902 0 0 0
284 1 0.005 2500 0.05683394071969515 0.09176369505311402 0.020816752447436287 0 0 0
236 1 0.005 2500 0.06238937680303267 0.08859300307512105 0.021576971687477572 0 0 0
1054 1 0.005 2500 0.07132715369140327 0.09178536577204018 0.02335433331826329 0 0 0
89 1 0.005 2500 0.08950514190811325 0.09155681112443419 0.0222604831026473 0 0 0
1338 1 0.005 2500 0.09750024718054764 0.09136530680582658 0.023051479159848516 0 0 0
607 1 0.005 2500 0.0025263615352430265 0.09246141582132231 0.02237377867063761 0 0 0
876 1 0.005 2500 0.006989359460324451 0.09582861351885813 0.022481056453766104 0 0 0
4 1 0.005 2500 0.012177926084833663 0.09232631101379754 0.020024089797228622 0 0 0
435 1 0.005 2500 0.021479223847537986 0.09364954623576861 0.02217663967298437 0 0 0
87 1 0.005 2500 0.03799952817804636 0.09318212258865664 0.022312131306886224 0 0 0
634 1 0.005 2500 0.047140205709792646 0.09308553925168511 0.02003635745779008 0 0 0
552 1 0.005 2500 0.051674589103277435 0.09261424992601046 0.023297582184666727 0 0 0
632 1 0.005 2500 0.061535355665950725 0.09327635623140682 0.02003813774451271 0 0 0
40 1 0.005 2500 0.06865022351003826 0.09524336448425301 0.02093147907321729 0 0 0
1122 1 0.005 2500 0.07544719445583144 0.09339747702884892 0.021025545637516296 0 0 0
65 1 0.005 2500 0.08152453565389325 0.09321474698728126 0.02180001245831668 0 0 0
1007 1 0.005 2500 0.09348100214748419 0.09429482206080954 0.023561290900985295 0 0 0
635 1 0.005 2500 0.002499385422488402 0.09694427087400989 0.02015985275334811 0 0 0
501 1 0.005 2500 0.01114294190172591 0.0975001502262787 0.020255697319164413 0 0 0
742 1 0.005 2500 0.015635145118042995 0.09750042055569613 0.022482021965965437 0 0 0
102 1 0.005 2500 0.0266707630979995 0.09694168797825715 0.02296328969406218 0 0 0
513 1 0.005 2500 0.03291386115944379 0.0975007630242471 0.02009173918010512 0 0 0
569 1 0.005 2500 0.03608821613310609 0.09750024579493884 0.02395441246037969 0 0 0
369 1 0.005 2500 0.04383263560954503 0.09750039020722674 0.020155613118003995 0 0 0
313 1 0.005 2500 0.047658612642325265 0.09750010069748977 0.02337359385181067 0 0 0
592 1 0.005 2500 0.052629740420444195 0.09750047944611757 0.022842294424321556 0 0 0
625 1 0.005 2500 0.057498284199020915 0.09639277441132243 0.022585382314315748 0 0 0
537 1 0.005 2500 0.0729586155423126 0.09747286102481703 0.022507497354374375 0 0 0
1553 1 0.005 2500 0.07795289930701164 0.09750011448676407 0.02274004633415739 0 0 0
752 1 0.005 2500 0.08458065445933198 0.09750018039244426 0.023170862528633148 0 0 0
866 1 0.005 2500 0.09750066200452424 0.09738583114044327 0.022023647674932853 0 0 0
620 1 0.005 2500 0.0946206890307323 0.0024997883223494607 0.02754280880737213 0 0 0
307 1 0.005 2500 0.07736227176076456 0.006214442496849312 0.025173188695671665 0 0 0
265 1 0.005 2500 0.09056282834976717 0.004559843504967056 0.025472372446350592 0 0 0
683 1 0.005 2500 0.09402265793800171 0.007919006786831629 0.024151899648228038 0 0 0
55 1 0.005 2500 0.09357345774769073 0.013681388250094031 0.02513507230427312 0 0 0
228 1 0.005 2500 0.09750025071943179 0.026737063075631333 0.02676246006562502 0 0 0
508 1 0.005 2500 0.08789411150012044 0.03193211273138103 0.025799606633684954 0 0 0
325 1 0.005 2500 0.09694603462855969 0.030867746387732934 0.024000375742168744 0 0 0
456 1 0.005 2500 0.09325292560706114 0.03936084295191543 0.024984750075426037 0 0 0
499 1 0.005 2500 0.09750022017860194 0.03675123019938879 0.024600637375176752 0 0 0
81 1 0.005 2500 0.08842303963492464 0.04192637709298157 0.025389188708541822 0 0 0
560 1 0.005 2500 0.09012974123884969 0.047407299032979175 0.026950991547249212 0 0 0
189 1 0.005 2500 0.0972044315499365 0.04593912212456081 0.026826265101739726 0 0 0
484 1 0.005 2500 0.07403672652323978 0.05120105210432487 0.02429507970764748 0 0 0
342 1 0.005 2500 0.08743375996648385 0.05088979193780681 0.024584066595327563 0 0 0
186 1 0.005 2500 0.0821996412345151 0.052500754157731186 0.026042681038452416 0 0 0
372 1 0.005 2500 0.08922399838165987 0.055248901400857864 0.02625474890553691 0 0 0
1992 1 0.005 2500 0.09622969273068317 0.05477748543524021 0.024907158669195694 0 0 0
168 1 0.005 2500 0.05039199138296251 0.06077715045648031 0.024485106032706528 0 0 0
292 1 0.005 2500 0.05467037969782784 0.06235281526402197 0.026537241282922935 0 0 0
381 1 0.005 2500 0.08234377245704542 0.06376113079545737 0.025244763241018566 0 0 0
465 1 0.005 2500 0.09625828193893465 0.0632691743659881 0.026259772820743668 0 0 0
134 1 0.005 2500 0.06520562161768885 0.06628880987321147 0.02431559518786137 0 0 0
254 1 0.005 2500 0.0780220653029053 0.0674040914567091 0.025971454717988632 0 0 0
641 1 0.005 2500 0.0896789236132068 0.0668733623129008 0.02663564566429401 0 0 0
624 1 0.005 2500 0.011192776261313552 0.07147443079230889 0.024044006804671357 0 0 0
51 1 0.005 2500 0.0934891128774371 0.07011008962013343 0.02656887418266452 0 0 0
374 1 0.005 2500 0.0024998907529515304 0.07492517209761498 0.024030875611481803 0 0 0
172 1 0.005 2500 0.08243094107438893 0.07457793785980346 0.02605138708073696 0 0 0
268 1 0.005 2500 0.08897400149376547 0.07220234814997847 0.026084855726880223 0 0 0
750 1 0.005 2500 0.0924873213895076 0.07575912240978266 0.026956376667924702 0 0 0
555 1 0.005 2500 0.09750025993335577 0.0741859853953142 0.02523517306357787 0 0 0
406 1 0.005 2500 0.01301066189571611 0.07851082610827827 0.02511411014522364 0 0 0
223 1 0.005 2500 0.0294046290982844 0.07679055982832513 0.024605066724906786 0 0 0
517 1 0.005 2500 0.035558796920179984 0.07721233637935421 0.02610564021492293 0 0 0
29 1 0.005 2500 0.06008003835537238 0.07793900297728015 0.025357221777552855 0 0 0
588 1 0.005 2500 0.07217884436832447 0.07948687682025156 0.026069329784772013 0 0 0
526 1 0.005 2500 0.07785061264237148 0.07616292312447949 0.027278621003463954 0 0 0
1571 1 0.005 2500 0.08668682816981055 0.0767920497184678 0.02745956835368559 0 0 0
583 1 0.005 2500 0.008153342099592833 0.08182009604610183 0.025331656837716352 0 0 0
521 1 0.005 2500 0.017393764590991206 0.08091624022704133 0.025077828769600158 0 0 0
502 1 0.005 2500 0.022441857880148332 0.08309698263728599 0.024928844370661816 0 0 0
575 1 0.005 2500 0.027336018301551523 0.08214391873503069 0.025298585841883107 0 0 0
397 1 0.005 2500 0.04350667439963698 0.08049073087930696 0.02505182223434352 0 0 0
351 1 0.005 2500 0.07501072248409839 0.0834415245662844 0.02491143054976506 0 0 0
18 1 0.005 2500 0.08018527414551914 0.08050083190331397 0.026424035966907046 0 0 0
1057 1 0.005 2500 0.09289009857503269 0.08342864420108242 0.0247917124263168 0 0 0
1117 1 0.005 2500 0.09750017188647739 0.08034985647237318 0.026118963571659815 0 0 0
706 1 0.005 2500 0.003794530583795059 0.08425030756483909 0.02502714960296223 0 0 0
362 1 0.005 2500 0.010672329442968706 0.08611314918524994 0.024860623226106812 0 0 0
335 1 0.005 2500 0.05065407070382682 0.08534044905187176 0.024726996926487065 0 0 0
238 1 0.005 2500 0.0800264663309089 0.08586674389906146 0.02747138511282235 0 0 0
1286 1 0.005 2500 0.0886080481806474 0.08612814575842036 0.02533296867628441 0 0 0
19 1 0.005 2500 0.09750023286887524 0.08559191813950523 0.02525259117828987 0 0 0
299 1 0.005 2500 0.00249969055333054 0.08902508976567734 0.026034819383150946 0 0 0
471 1 0.005 2500 0.007185043157534929 0.0883627532797549 0.02764898257029021 0 0 0
116 1 0.005 2500 0.023419097728518534 0.0902406281310294 0.026230348280949948 0 0 0
533 1 0.005 2500 0.029955339025777617 0.09142060821111526 0.025415697805196015 0 0 0
686 1 0.005 2500 0.03861119017976865 0.08820161710729346 0.02542123901693728 0 0 0
453 1 0.005 2500 0.048053619618899285 0.08960348837393167 0.024976927364791016 0 0 0
1051 1 0.005 2500 0.06700255961244204 0.08936548203574647 0.02401650950458245 0 0 0
589 1 0.005 2500 0.07548564318313364 0.08939154512369521 0.024758368517925223 0 0 0
1517 1 0.005 2500 0.08252487024869866 0.08884088086167026 0.02432311522521329 0 0 0
300 1 0.005 2500 0.09329484898169878 0.08888760670521688 0.024134329631687504 0 0 0
657 1 0.005 2500 0.09667206328165381 0.08984749256956108 0.027742612322459392 0 0 0
436 1 0.005 2500 0.0055423410428034805 0.09298154257098419 0.026327656869348025 0 0 0
198 1 0.005 2500 0.011814939691812206 0.09502169893476153 0.024545516007657052 0 0 0
579 1 0.005 2500 0.01661600657931551 0.0935562300377082 0.02539340004181142 0 0 0
679 1 0.005 2500 0.03608121863948504 0.09319415227244546 0.026929128197486284 0 0 0
348 1 0.005 2500 0.048638926571100485 0.0941562093234791 0.026958906405053436 0 0 0
21 1 0.005 2500 0.06150643745023557 0.09448846793515005 0.024888590044943096 0 0 0
761 1 0.005 2500 0.06647846729473873 0.09416793760558195 0.025304498639530822 0 0 0
461 1 0.005 2500 0.0748144073329958 0.09430518077265722 0.025901451225724296 0 0 0
306 1 0.005 2500 0.07935017066425062 0.09222174260400512 0.02619115370885503 0 0 0
830 1 0.005 2500 0.08545365892622957 0.09288097051106849 0.02487350921720876 0 0 0
310 1 0.005 2500 0.08996617424284103 0.09291134317628652 0.02705095540657097 0 0 0
44 1 0.005 2500 0.09750051130608238 0.09504139275331744 0.026439700128996494 0 0 0
244 1 0.005 2500 0.003069059012359461 0.09750020282154358 0.025095595448678 0 0 0
70 1 0.005 2500 0.008247945898073782 0.09750018806426029 0.02702177677363484 0 0 0
167 1 0.005 2500 0.014697151262162 0.09750032978516142 0.027793030508622737 0 0 0
66 1 0.005 2500 0.01996464517206075 0.09750029167860186 0.024982558388727764 0 0 0
290 1 0.005 2500 0.024361677115337765 0.09750006143843952 0.027362508982521003 0 0 0
301 1 0.005 2500 0.031317522015109525 0.09616805860684274 0.024638264653133235 0 0 0
447 1 0.005 2500 0.04103025508633955 0.09667484648048184 0.024213011812653226 0 0 0
105 1 0.005 2500 0.04475543461465937 0.09750006580303903 0.027444042723067816 0 0 0
403 1 0.005 2500 0.06999674963504723 0.09750022433734358 0.02653528528716083 0 0 0
597 1 0.005 2500 0.08102737913244791 0.09691064617256055 0.026638428541805988 0 0 0
332 1 0.005 2500 0.08592674947458663 0.0968051559081377 0.02793552241071352 0 0 0
741 1 0.005 2500 0.08941774128791664 0.09709450373378226 0.02436794622778515 0 0 0
114 1 0.005 2500 0.09328214506770713 0.09750039636025899 0.02751354646118262 0 0 0
390 1 0.005 2500 0.019077394225217432 0.09069062633411841 0.028668780587242995 0 0 0
711 1 0.005 2500 0.08574051867002185 0.08910855772856673 0.028142233036234678 0 0 0
650 1 0.005 2500 0.002499825314244351 0.0952985198938779 0.029548198930009557 0 0 0
598 1 0.005 2500 0.09390464266890387 0.09327315535733093 0.030109675588796854 0 0 0
492 1 0.005 2500 0.03412714854055311 0.09750013957929364 0.028553495830598696 0 0 0
3 1 0.005 2500 0.09707444570209604 0.09750018286303291 0.030772022701882888 0 0 0

Velocities

2184 1.1239378215499977e-07 -3.7720511066707984e-08 3.352025609199313e-08 4.2398332813591556e-05 -1.3501878316647157e-06 -9.353397012737336e-05
1752 1.1937519657261483e-05 -0.00021474108763164175 -7.26423950517327e-15 -0.06617605655129456 0.03234653863436576 0.01661181647984085
1678 -6.819594290940344e-08 1.2643221655027486e-08 1.1249262756229307e-07 -3.67003164332845e-06 -1.4675856867298704e-05 1.325290799229286e-05
1918 -1.4090498490110112e-08 -2.9666878675350386e-09 -1.1285974223766975e-08 -2.1206103670094522e-05 -5.746413697074832e-06 -8.0521151072711e-06
1570 5.826340987867149e-08 7.72576748506549e-08 -7.993249695828732e-10 9.009217626518887e-06 9.225250881563177e-06 6.15724187853576e-05
2122 1.1755402606847321e-07 6.099552068595673e-08 -6.177883872102153e-08 -3.147868836549676e-05 5.448754549447538e-06 -9.248614980562419e-05
2179 9.291196145286931e-08 -4.375043294308121e-08 -1.010844863200409e-08 1.7985526775301007e-05 1.1221752140354681e-05 -1.5423614611647036e-05
1987 1.4697892376604344e-07 -7.80556947266329e-09 -1.7325044579304506e-08 -3.294742560730768e-05 0.00013105653083290362 -4.604689856002586e-05
1930 9.939319080181576e-08 -5.384896061103304e-08 1.1140859806609046e-08 7.147683454024289e-05 -6.001205299763168e-05 3.350316201744051e-05
1670 1.900886949188666e-07 1.9066656979961207e-08 8.317671150937017e-08 7.810281829663314e-05 6.286187305090496e-05 -7.286953644425708e-05
2005 2.0254771236838213e-07 -4.793799645016449e-08 -5.409643873743353e-08 3.4022008730797934e-06 6.710948747310773e-05 -8.41563774447069e-05
2043 2.7646672339764217e-07 6.580174497764917e-08 -7.700319612231783e-08 -8.33699630324818e-05 0.00018962226330171712 -0.00026278118160713945
1855 1.005530285512984e-07 1.142804156152595e-07 -4.958673870302233e-09 -7.377793054184168e-06 9.324612781711592e-05 -3.3256275501939236e-05
1144 -0.00020057332294850144 -0.00011754640052107676 8.637590830547979e-15 0.12042547246101296 -0.12615275168677287 -0.1950063978854636
2017 3.2071243104813884e-07 -2.2600156618741197e-06 2.7935104079554097e-08 0.0008945220036784981 7.882050777898507e-05 -0.005976703720582751
1901 -4.329628295605085e-09 -1.3453856563026283e-09 5.986854579840536e-08 2.2431790367895158e-05 -2.5586780449902315e-05 -6.478578422312312e-05
2038 -1.8476030311776816e-08 -4.832617474978531e-08 -2.802962239063723e-09 1.7807637698765966e-05 8.655968088682678e-06 3.467023563551113e-05
1607 -1.6510370119643145e-08 4.8680544062756656e-08 1.62517191585084e-09 -4.161091560093227e-06 -5.4046550619723106e-05 2.6396861868072556e-05
1699 -3.120944409785011e-08 4.777211483560114e-08 6.193325436553028e-09 -2.0261557092113994e-05 -1.4336437698642163e-05 -6.69749224833706e-05
877 -1.9878027943713476e-08 -1.2544471249942491e-08 1.2314458529638976e-08 1.5418306725754605e-05 -1.0036014964931277e-05 1.0026070027134897e-05
1194 1.560371785075125e-07 7.096943295300326e-08 9.212117480648309e-08 -4.654637014866389e-05 2.371304825231651e-05 0.00018761030801805225
2129 2.471525683177814e-07 1.622817038172244e-07 5.3662057469603843e-08 -5.156315479627156e-05 0.00010783557691384677 -6.746853526595906e-05
1604 4.67717283021394e-08 -7.460011985036968e-08 2.796043181771839e-08 5.115554327346247e-06 -3.4308501576946295e-05 3.991746338100345e-05
1687 6.39363533238072e-08 -5.5515029922220724e-08 1.7268568531641323e-08 -3.3230985425764004e-05 7.836083262467178e-05 -4.860107268209545e-05
1925 1.1554350914595835e-07 1.0420067528544628e-08 -7.99041240951951e-08 -2.549314402748782e-07 -9.746102092631849e-06 0.0001758024865573949
2052 5.965988126361072e-08 2.416902018940733e-07 -1.4025873824137036e-08 -8.832792675608837e-05 1.5345240671286146e-05 3.520555176375282e-05
1602 1.8125728950451467e-07 1.4484405599745034e-07 -2.6723908291001142e-08 -7.131920196062559e-05 3.6864777740195735e-06 -6.2309237447746e-05
1388 -2.1571262705514136e-05 -1.5606677802795914e-05 8.637583841853108e-15 -0.0076723867385180625 0.05954704004782455 0.00593849571918979
1143 4.115460286808192e-05 -4.01722102325387e-05 8.638548758129618e-15 -0.05862036537393838 -0.11050425928511733 0.010158725734298884
1755 9.832054821339392e-08 -6.839824371176712e-08 3.777834543327344e-08 6.904203580764009e-05 -2.7974430435274595e-05 -4.3046769592424186e-05
1934 -3.54879683134949e-08 5.255836225673004e-08 -2.760747333473372e-08 7.010732548645598e-05 -3.2963147956666575e-05 -1.8645298286397764e-05
1564 3.6044531407461985e-08 6.763645155798721e-08 3.9207647366521836e-08 6.690747918475066e-06 4.406820159869239e-05 -1.5238407518959566e-05
1668 1.004119063367457e-08 6.671112821503833e-08 3.286016177206198e-08 -1.0887133617839333e-05 -5.714059442157215e-05 9.871905016104841e-05
1946 9.112340105034212e-08 6.816878008411311e-08 4.7126706185005047e-08 1.0594700408332277e-05 7.20835533715098e-05 -9.37885618197518e-05
1393 -2.94692128189377e-08 1.1076894151177327e-07 5.1165315320276445e-08 8.498962768642188e-06 1.699056455591959e-05 4.630048822088724e-05
1950 3.0365406035673386e-08 2.7161184053489753e-07 4.906386320852897e-08 -1.876464817856295e-05 8.924951325968449e-07 9.53978896843073e-05
1931 5.434831703169292e-08 -1.1852626383963447e-07 3.282146729809714e-08 4.062452650534266e-06 1.728200805920455e-05 -3.221393600992311e-07
2200 -3.666098442657205e-08 1.1039638873244632e-08 -4.050515238581705e-08 9.87220950529094e-05 -2.259442755648002e-05 7.625752787164138e-05
2106 1.7994299158175208e-07 1.5974814826550633e-07 5.6034576796619124e-08 -6.0881958143443535e-05 3.238014846915907e-05 2.9939731753030276e-05
1189 -1.0495160873445212e-07 1.514367804539551e-07 -4.2091506273587604e-08 -1.7277496896714415e-05 4.7118872539742185e-05 2.8069936287318443e-05
1332 1.996045714927692e-07 1.6020097590828556e-07 -4.573075404206911e-08 -6.1006548906172765e-06 1.5108204363875989e-05 -0.00010345599887473639
1605 1.5396746157018078e-07 8.540549030980476e-08 -3.219174877850549e-08 -4.310220359280185e-05 5.645376385527738e-06 0.00017523842468408023
2047 1.754688680945764e-10 1.0703668103667698e-07 7.430514873821334e-08 5.476080794834679e-07 -4.940304976148104e-05 2.3219837047064876e-05
1681 -1.743187052180828e-07 -1.2550928163654338e-07 2.608605688616102e-08 8.31953064779122e-05 -8.255792111588097e-05 5.237626108150133e-05
1965 -4.185013137757924e-08 -4.04828254500553e-09 3.603485142102794e-08 -2.4553629556408402e-05 8.520568686411736e-05 -0.00010611561834008895
1691 1.7714445892004886e-07 -8.073715242239436e-10 6.228265870460712e-08 -5.5566882787067916e-05 -1.0123061576951083e-05 2.051553012249763e-05
1151 9.575103987988248e-08 -2.63027088485941e-07 4.4573261427179255e-08 4.704793853668978e-05 1.2149926787328737e-05 -0.000243207758558023
1646 2.484347017074326e-07 -2.198744342173061e-07 -9.678334557721815e-08 4.701188138412631e-05 0.00011088021781014004 -0.0002336362044103572
1940 -7.828912636431376e-08 4.333603759992921e-08 2.099028979942948e-08 -8.277513307200134e-05 -3.2377595494695545e-05 4.412797354498939e-05
2095 -1.6715669643886866e-07 1.7237979803193614e-08 8.453234364351869e-08 -0.00011249164759721434 2.3126684816497734e-05 -6.93116492000004e-05
1886 -1.8333515134977605e-07 1.80635826501808e-07 7.025820568543952e-08 -8.58774329135199e-05 1.0050337693324493e-05 9.643007774556075e-05
1803 -1.4876086988392025e-07 1.9430971929527384e-07 2.9596985872933586e-08 -6.607368003751979e-05 4.753942756728452e-07 -3.882631024921725e-05
2097 6.223810375006387e-05 5.505207367661711e-05 -7.264242579947339e-15 0.08307092728041063 -0.1286829344252866 0.007617973293538759
1360 6.212793581032502e-08 2.2769871076331776e-07 8.143030155982093e-09 -4.45283616880658e-05 -8.010421787991911e-06 0.00013639782460028916
805 2.915225574426414e-09 2.0485996839347344e-07 -4.2424846986100664e-08 -7.843629212420995e-05 4.13564596042829e-05 -2.1638283429107256e-05
1985 1.3359827935720818e-07 1.5671964895743142e-07 1.3492289211632279e-08 -0.00015174789487901083 -6.194401252948796e-05 0.00019220019694753758
1463 1.0849880139430356e-07 5.0139753549008185e-08 7.870075434902029e-08 -1.036900082649905e-06 3.148097981410605e-05 -0.0003141504685354787
1915 5.932708045513809e-08 6.560278276386835e-08 1.0703299566503476e-07 2.2238020930432232e-05 1.5606312965422244e-05 -7.109696865223355e-05
1062 1.083367211296904e-07 6.438265481506034e-08 2.5068252839673416e-08 -1.7135817146006846e-05 5.058885564333916e-05 3.729222048307434e-05
1526 6.770646096182638e-08 -1.399006792719692e-07 -7.475658541281723e-08 4.72749624770544e-05 -3.58781750527913e-05 6.371660764911493e-05
2066 1.7755282191787583e-07 -2.675759003388797e-07 7.736566313080191e-08 5.259737492693952e-05 4.722604915811546e-05 0.0003229058997849121
1611 3.486469541673381e-07 4.518393576000372e-07 -4.875199364899613e-08 -0.00017202298165755453 0.00011206809550732488 -0.00011344232706126281
2025 2.305429969801408e-07 -8.980150308995712e-08 3.3891031730235596e-08 4.7112692450979286e-05 -3.741071902047732e-05 -0.0001381141197153546
1667 1.1952768630049945e-07 3.9587066749801126e-09 -2.6601958631120373e-08 7.975149300912847e-06 0.00010339392542322708 0.00010291995367975199
2046 1.0310596320217433e-08 1.7471953232273434e-07 -9.752652488462619e-08 -8.525267866947065e-05 0.00010326014175967949 -0.00021576654294111003
2155 -1.1335136186973489e-07 5.988718072132839e-08 -2.642340707437062e-08 2.6963109165474782e-05 -0.00011043518083363719 -1.7880824569590564e-05
1615 -3.465615434013744e-08 1.9807125988415887e-07 -1.7165910429156473e-08 -7.81216313122517e-05 -9.138378641367234e-05 0.0002862843185555652
1471 1.6245022271337166e-08 1.0752447993170487e-06 9.44889149514939e-09 -0.00022358252574931475 7.859484045758527e-05 -7.141125862713647e-05
2151 8.99877487675826e-08 2.3776456255104452e-07 -3.592962462587089e-08 -3.1675228756453834e-05 -9.512758943595504e-06 -0.00015694564278098393
985 -1.8007188155335126e-08 -1.0838515036406772e-07 -5.0461003996839474e-08 0.00016163091029497832 4.5551939940720903e-05 -4.522664355457817e-05
2159 -8.935078703831321e-05 8.977396550704913e-05 -7.264241567519413e-15 0.11585331494086094 -0.04593683036028592 0.02137593921852144
1682 -3.0752507418548447e-07 -1.654563961818929e-08 2.1919377356396968e-08 4.9915948036109535e-05 -0.00015235036626862913 0.00015551199478072223
2076 -3.796567903077848e-08 1.4287196965038396e-07 9.64897479781754e-08 -3.5178478094643906e-05 -4.714515638392307e-05 3.4496052292414014e-05
2127 -3.405164831334267e-08 1.109732832843167e-07 2.8101487627391303e-08 -2.172872026648944e-05 3.0640904349150604e-05 -6.311070117456335e-05
2027 -1.9563700387541823e-05 -5.1350691156063034e-05 -7.2651953040688e-15 -0.03483797023973751 -0.02403040681953715 0.018225370954332
880 3.8473078917812063e-07 -1.6950581900266227e-07 5.199654150043383e-08 0.00016068353786109218 -9.67218327317694e-06 -0.00010655509703382538
1916 1.3150013193401874e-07 -2.8554168142318037e-07 5.264356889286343e-08 5.546348117467526e-05 2.0988809839605643e-05 -0.00024120532076118783
1793 1.4624332010858856e-07 -1.2801489721154767e-07 7.020295803253364e-08 4.867037936272844e-05 1.0016975659992288e-05 0.000254789806468718
1927 5.5033371308716996e-08 6.312879487366741e-08 -1.0201208706164694e-07 -1.3905384735846333e-05 -4.9554539620581116e-05 -4.218099940200418e-05
2113 -3.4256924715216114e-08 -3.992863696476971e-08 6.659030122528324e-08 0.00014139690863030727 -9.621123851217474e-05 0.00016346423073788474
1917 -3.7365617529298156e-08 -5.0488392482027274e-08 6.391555353794955e-08 1.1707038520536663e-05 5.380972767134559e-05 -0.0001452696625613904
1789 2.4663802060318705e-07 1.4730274165427932e-07 5.47424523006974e-08 1.832825099626827e-05 1.4373509395990214e-05 0.00011708791537142909
1216 9.539188418961345e-08 -1.5428476442618462e-09 7.327788606207599e-08 -7.726342191387358e-05 1.0760644132307023e-05 -0.00013251643138469425
1591 6.994387077608135e-09 -2.446974491126474e-08 -2.9022449639036977e-08 2.8432325589801022e-05 -3.995107099159899e-06 0.00021352971733274486
1578 -7.601061872858697e-08 2.350624336052822e-08 1.4940141426324135e-08 -5.403704199008308e-05 -6.09231642753535e-05 -0.00014961230282867685
1990 -1.6829417309937355e-08 1.5209374085949484e-07 -2.670404422529651e-08 -6.802076308621493e-05 1.8570448646006573e-05 1.5176643913977274e-05
2120 -6.66089991299884e-08 8.363598608918379e-08 6.767801448906265e-08 3.0689385895967745e-05 -8.460647476629457e-05 5.873202359499754e-05
2130 8.734347507173263e-08 -2.439903808058873e-07 -9.10171854426504e-08 -9.103433845258675e-05 8.07657380097692e-05 -0.0002682828241432777
2150 9.295658841452148e-08 -2.3804858391377288e-07 -6.064110134999664e-08 1.3575398986481049e-05 4.594016938282321e-05 0.0001929236429377169
1994 5.109375448141804e-07 -1.990098788490998e-07 4.4150896804619805e-09 -0.00011861416896851537 0.0001640871906950297 0.00014391981210759954
1774 5.43111936507581e-07 1.6070209319716985e-08 -7.627801897096112e-08 -2.207378432820131e-05 1.7697188253934455e-05 6.092276061086839e-06
2153 2.3110097466863331e-07 9.291895809227292e-08 -1.0520491799354139e-07 -0.00018720250763361017 7.177314505353116e-05 -0.0002668103178335831
2186 -3.0292593102111916e-09 1.107132149657184e-08 1.528918021850144e-08 -5.979728675121601e-05 4.196545715786323e-05 -0.00010981658518600082
1362 -4.0475966407933946e-08 2.9135635075785073e-08 1.8389935263122809e-10 0.00011945516517816698 6.057719047981965e-06 7.24994081327339e-05
1677 -6.518790735356482e-08 8.881812529901107e-08 -8.808373836049054e-08 2.4783653212042507e-05 9.533499318850163e-05 0.00017076636217922946
1436 -1.0100770123116857e-07 -3.7841582980186806e-08 -8.492786311570061e-08 7.564793546548268e-05 -0.00010909506749805341 -0.00015791833817364574
2198 1.6638694688468717e-07 -1.4525984220372447e-07 1.5233896676510038e-07 6.196627833241996e-05 3.103002863673776e-05 5.390800518689173e-05
2196 4.3714943897606274e-07 -4.6732259132901254e-07 7.958205763747952e-08 1.7929637657532527e-05 0.00021092358956851455 -9.774905092766529e-05
2164 1.5302129143366554e-07 -4.498063982679319e-08 3.3993552021296125e-08 1.8152371820243236e-05 1.8477391812849587e-05 -0.00013163339923922206
1179 2.274563257446279e-07 4.6824043487752074e-07 -1.1901769188023083e-07 -0.0002687608985158561 -0.00020725046108454616 -0.0003924184076711845
1818 -9.906697340790356e-08 -5.201708417065686e-11 -3.6267700570738775e-08 -1.2071356558932614e-05 2.9615639838938516e-05 -0.0002093897447496261
2001 7.908840063575508e-08 3.7938449177850866e-08 -5.4087677654731514e-08 4.7920808607444744e-05 3.847004198393476e-05 4.5665291722098576e-05
1628 -1.1189418694210534e-07 9.338001718680589e-08 -7.19539970198249e-08 1.2075702425711936e-05 1.4739953156688862e-05 2.9276994852203553e-05
997 -1.0059022414696292e-07 1.9575157398363954e-07 -5.442354918704747e-09 -6.899327208102201e-05 -8.238494703306752e-05 2.6837219593255998e-05
989 -7.115259391353797e-08 5.973002225985076e-08 -5.9092271802672265e-08 -6.229462764218367e-05 2.626357224089282e-05 -2.5268778549994614e-05
849 7.522522716990952e-08 -5.762349998621937e-07 -1.9772643936251479e-07 4.8152607343643635e-05 -0.0001713501018349047 0.00024762957337988125
1766 2.139599849016528e-07 -3.402038354933575e-07 -5.114570478312975e-09 5.380523716159307e-05 3.99970626958199e-05 -0.00014905832023114364
1110 8.920889661553882e-08 9.305090362644363e-08 -1.4299032594300885e-07 -0.00010218847767331013 -0.00016476102930027478 0.0002070808586626677
2086 9.94927312452086e-08 2.1114472966275336e-07 4.1378503967043493e-08 -8.419418635324008e-05 4.116161570862454e-05 -0.00010903314309856412
1685 1.5157416796657942e-07 -1.743857061796321e-08 -2.008269516224586e-08 8.583735380808763e-05 -3.773227001599093e-05 1.9156128331879138e-05
1708 9.051538686770756e-08 1.5856775883936165e-07 6.328050448907869e-08 -0.00014019556715239462 -2.8128313324890024e-06 -3.488495191333011e-07
1017 -7.811890210513517e-08 4.224858988542395e-08 8.774287602694174e-08 -8.596633616528515e-06 -1.944650811745874e-05 -0.00011744857550731106
2131 1.0974641276857546e-07 -2.356097997305906e-07 2.2152482580494297e-08 -0.00015413017288076078 -6.0920216341661416e-05 -4.996134731482544e-05
2109 2.3047836530278146e-07 -2.2556659608163525e-07 1.7413883863026622e-08 -2.0173081686455904e-05 0.00016241550803293444 -1.717171456074524e-05
1484 1.8341242033345007e-07 -3.3824569013511254e-07 2.0753192501844123e-07 0.00017201364552440676 7.849394852092238e-05 0.00022098231341598202
1834 1.1320995589658498e-07 -7.669178826776502e-08 7.0454131335613096e-09 -5.186169410101669e-06 1.5664468890102453e-05 -3.4841571223327456e-05
1538 4.807533037120991e-05 -4.2642648258210474e-06 1.0610160839120751e-10 0.005071765221170817 -0.01989213749868731 -0.014206152371161577
1587 2.716064387828096e-07 2.752906409933304e-07 -4.638727064888666e-08 -0.00011508828890733819 5.616400373578907e-05 -1.2438872750804369e-05
1864 3.248356327625418e-08 -7.519399583754218e-08 -4.976146622053724e-07 -0.00011497560869906552 -6.283335094005818e-05 0.0002297519049389404
1960 5.625477711337915e-08 8.719152806038994e-08 -1.7583995447911925e-08 -9.59019208502005e-07 8.405801583732442e-06 -3.2073437925703455e-05
2037 -2.115058187261563e-07 1.0450269717195831e-07 -4.297673201794081e-08 9.792227947797164e-06 6.931104751510735e-07 4.120466860039594e-05
2181 -3.4422192917474163e-07 2.0369219226894104e-07 7.311940195630477e-08 -2.338965845838336e-05 -0.00010460056485773264 4.282556465141736e-05
1747 -3.6602802225486393e-07 3.585615274751221e-08 -2.6654637852426982e-08 -8.891056951820967e-07 -2.8980944389243653e-05 5.701827085612202e-05
1996 3.2287394370267576e-07 -3.853604371472925e-07 -2.1504863918376172e-08 0.0002181559886662175 7.435190323062383e-05 -0.00047595350407844466
1629 -1.5843352337967454e-07 -2.9602210056583656e-07 6.086205918935315e-08 6.647787370570462e-05 -3.713597014244165e-05 -0.00025999813173585194
1715 -6.660613107202605e-08 -1.419777179700646e-07 -2.759641041733001e-08 5.570786408503216e-05 3.2774386093160686e-05 0.0003073908662882985
1795 -2.2775232466372056e-07 6.995814073683551e-08 5.982195737467252e-08 0.0001751488361774221 5.938376462045093e-05 -0.00010371048540104525
1813 -1.605432817846464e-07 -1.9592207083728877e-07 3.6120974808404964e-08 8.660870200375166e-06 -8.616404570686674e-05 2.770698975548751e-05
2169 3.360303163586796e-08 -3.2880803202842714e-08 -8.453656649734064e-09 -4.917808859515527e-05 0.00014829276664099934 7.461825754434682e-05
1528 -3.4583662162976635e-08 -1.5708101744599902e-07 -1.2853054501760637e-07 -2.7201816480868327e-05 -0.00019750088045585439 1.0098956188913993e-05
1230 6.829760968112288e-08 1.0994082166491297e-07 4.8574805965453325e-08 1.2193537139147073e-05 8.401598608327351e-05 -1.3184697624800373e-05
2172 4.467675369133723e-08 -2.7098173353471654e-08 -1.1838559768896285e-07 -0.0001615673155871411 4.883976209308197e-05 0.00011154425676681288
1852 1.2479922871904766e-07 -8.723336762310194e-08 1.450873293468612e-07 8.586827290052508e-05 2.9425982823936697e-05 8.515783573315924e-05
1868 1.0011016149112201e-07 -8.654036696330476e-08 9.184983623721911e-08 -2.6297542469607116e-05 -1.8587398614322584e-05 -3.5321824841184934e-06
2176 1.322105142226604e-07 1.0493360593491317e-07 -2.4608346609316997e-08 7.178993249272433e-05 5.446500294210611e-05 -0.0003073270788547107
194 -3.8631367941302955e-07 8.639422923406056e-08 1.2904987023787786e-07 -8.941620113665133e-05 -0.0002825327310047485 -0.00015307168930774425
1675 -4.41103236979005e-07 3.824692085958061e-09 -6.532321024145238e-08 -9.885414466683369e-05 -0.00011804767247797797 -8.59772339940993e-05
1542 -2.8708359032368665e-07 -1.973390468480239e-07 -2.6483000886194268e-08 2.4738643616501128e-05 -5.206540212244921e-05 5.009360294954248e-05
1861 -4.5040126305031713e-07 3.4087664937493994e-08 -2.782643919478185e-08 -5.3597050018886184e-05 -4.662475078213059e-05 0.0005125515798161564
1897 -1.144249884873478e-07 -1.4891062526779602e-07 -2.131798141210744e-08 -0.00010439492555406903 0.0003030428955553393 -2.9209633417923165e-05
1835 -8.144511387966788e-08 8.743454955374148e-08 2.1277576535662696e-07 -0.00016093410383413706 4.4770789690776536e-06 3.273836133435578e-05
2152 9.854481814855812e-08 -1.8449171876603417e-07 -5.0338234958183257e-08 0.00021499785197915693 -6.305729057217815e-05 -0.0002523740305226538
1729 3.2582198703320215e-07 -4.259980049642094e-07 7.535103270053131e-08 0.0003071033529711183 0.0002241128816747613 -5.559475233972913e-05
1999 1.5402420777245727e-07 -3.0467375405709944e-07 1.0177591179839001e-07 0.00024358052882644113 -0.0001223955437673861 9.777851416848894e-06
2199 1.56647768284631e-07 -2.0984732151978764e-08 9.0784660163008e-08 -8.068981353035188e-05 -1.1244544494711012e-05 8.804962387542515e-05
1108 -5.7416551954439573e-08 -5.666395917754655e-08 -5.132500895884199e-08 6.087923135744706e-06 2.505581252845089e-05 -9.84682578875142e-07
1712 4.5883593794422224e-08 8.956688913306638e-08 4.317407148841983e-08 2.6582009843980476e-05 -1.686225750589565e-05 -6.661251236168092e-06
1989 -5.0792102275340866e-08 7.603854801690835e-08 -6.544359963271585e-08 -0.00010769449152814633 5.390271269907174e-05 -1.7170938484204256e-05
2006 -1.4518136349269972e-07 -6.841301687232517e-09 -8.488385248246465e-08 4.021740319284121e-05 -0.00011247029688304048 3.997605286982246e-05
1882 -1.950786692326326e-07 1.223624137377677e-07 -8.958121172428272e-08 2.3740222950548722e-05 9.27704599878141e-05 1.9253566344917723e-05
1172 -1.573448755232431e-07 -1.7958816987118383e-07 -1.2680730076249766e-07 1.158580816177541e-05 -9.476265277645161e-05 -0.00014546866062676783
1870 -1.8740081495586237e-07 -2.074681116920432e-07 6.717977573861444e-08 7.721412753708206e-05 -3.177992294134903e-05 7.588437685248514e-05
2022 -2.1100953923886933e-07 2.653915805871958e-07 5.419979336625078e-08 0.00011467307774158726 8.805017171949709e-05 5.8640046739997344e-05
1660 -2.620559001627034e-07 1.3813305563497507e-07 1.1095373845485072e-07 -0.0001724603260261767 -0.0001864748492152807 4.091622452151275e-06
1651 -1.973138127775096e-07 -1.517247418069148e-07 2.51950211302822e-07 7.96803928564553e-05 -2.7708005873263792e-05 -3.585907313971587e-05
1889 -2.704623012311884e-07 -2.5297369619376454e-07 -8.011691173171047e-08 0.00022039084154843266 -0.0002756686891901531 6.456587655476897e-05
2160 -3.503782706397647e-07 -7.842270107218836e-08 -4.601774669970184e-08 0.00016721440385037925 5.2773926743667786e-05 0.00014774899459568991
1661 -3.9894367153206805e-05 -2.8430176739770995e-05 -7.265200528317847e-15 -0.02396824178519573 0.043332908959874676 0.005801588841475875
1776 3.0745574308272726e-07 -3.20067815247476e-07 1.1767697850265781e-07 -0.0002570516891202289 -6.991715283584587e-05 4.918716169148366e-05
1748 2.944958225950317e-07 -1.833228678371258e-07 7.82404443624752e-09 -0.00025933302403690066 0.00019154092054209863 2.236516392656519e-05
2069 1.959909068464322e-05 3.242228724258355e-05 -7.265193163424257e-15 0.03076929956414884 -0.012140567932874092 -0.004574335734167867
1784 -3.633934291242069e-08 -1.5350183586575696e-07 -1.3760669560842054e-07 5.018522253032239e-05 6.415399010092805e-05 2.6383674449916747e-05
1637 -3.4371030629999286e-07 1.0190563516829938e-07 6.779608479256588e-08 0.00011486973630724895 2.1349412198641215e-05 0.00020191017295825142
2067 -0.0002517981839867954 0.00019909835809323192 8.638551882636108e-15 0.008222968597935301 0.20173428814506075 0.06828924571320466
2197 -8.745247083368682e-07 -2.3525593950308756e-07 1.2505900078029187e-07 0.00020479805503327415 -0.0006266053541679802 0.00013364855003126884
2014 4.944176377045883e-08 1.4440445093713602e-07 5.1406297412196786e-09 -4.971940368630879e-05 4.4155109151310704e-05 0.00013554944889400172
1865 2.3314481196943234e-08 3.3890056969812066e-08 -2.6984020166861545e-08 0.0001356221726333461 4.785000384358906e-05 -4.601910459677741e-05
2021 -2.0880576769679222e-08 1.436659037179767e-07 -6.213300819418942e-08 -2.4480714232356966e-05 -0.00019729582943199604 -0.00016542487370688563
1644 7.68292019021009e-08 -6.224009655964772e-08 -1.212834820487143e-07 -6.681630042817601e-05 7.623768799484379e-05 -0.00012359540022858855
2091 2.166849128379328e-09 1.7128863749181933e-07 -5.4863375952334664e-08 3.573793731495331e-05 9.989817564237666e-05 -0.00023676903278020431
1779 -6.3777884095188715e-09 -2.9687125888784077e-07 2.288480764720972e-07 0.00018932539588392274 -4.4933710262102216e-05 6.552898903054388e-05
2003 -1.075045050940463e-07 -1.4902045976394377e-07 -5.824594469626938e-08 4.25500371656307e-05 9.939528817441419e-05 1.7113874925235472e-05
1761 -2.5499762135892565e-07 -1.8143331395699845e-07 4.949616659558461e-08 -7.582615389388685e-05 -7.531655561120897e-05 -4.22441577955573e-05
2013 2.679299325859909e-09 -4.232720541284862e-07 -1.6718852402802186e-07 0.00017512196896529852 -2.1447534395496025e-05 0.00016697550745886075
1693 4.685677802231857e-08 -2.5416287638065825e-07 -1.4305692679384683e-07 5.489443147285313e-05 6.225767516773236e-05 3.69807745889613e-05
2084 -7.388767497883346e-08 -8.067047358983126e-08 -1.6256621898048674e-07 0.00025624059874847184 -0.00010474492167623024 0.00011170279692202328
1924 5.8727563006193774e-08 4.604657094147519e-08 -1.6657299390144861e-07 -0.00011804331615146416 3.1851635879161585e-05 -7.500658700709791e-05
2057 -2.515051615556678e-07 -1.0635999759374586e-07 -1.2366060300608478e-08 6.031344139820283e-05 -0.00014336684970519813 7.328134358956119e-05
2163 -2.3137314694299362e-07 2.2333046926000403e-07 -1.541797953337302e-08 -4.3574181447684846e-05 2.7225766188230307e-05 -0.000252476407896386
1997 4.459155612314593e-07 1.4935633520118798e-07 -1.4452413767362863e-07 -8.167894264126672e-05 0.00017095813419303946 -0.0002889112712846644
1719 4.366544447818975e-08 1.0495676627907191e-07 -3.5803836549642116e-08 -8.508120296805044e-05 0.00016087984208450708 0.00013803066436236558
961 4.528462528351789e-08 -1.528360124834415e-07 1.4075141174373442e-07 0.00020927467620914593 4.462219510597753e-05 0.00014151832172412066
1619 2.6173202264721415e-07 3.319995179857801e-07 4.797099567239779e-08 5.017214923164872e-05 -8.292520035662549e-05 0.0004381734641494571
1797 4.652443234133842e-07 3.1959902579463045e-07 1.7283647225770805e-07 -0.00017209167873995284 0.00022202247028304148 -0.0005414783584634843
1972 6.048248959335793e-07 2.963055654129702e-07 2.853914315625196e-07 9.608947237140452e-06 0.0002066517663574635 -0.0001449425273169154
1264 -1.9414553674959444e-07 1.3573365049632212e-07 1.0474484402579585e-07 7.11684709178727e-05 0.00022257574184040185 3.3183513482356045e-05
1018 -7.016928301436109e-08 -2.0523155066671163e-07 4.6168850045021416e-08 6.773551425707804e-05 -0.00010684526797240114 -0.00015717693564230718
804 -2.6220657493774148e-09 -3.322537162195297e-07 1.1296152652021364e-07 0.0001587620197459235 3.341122648753164e-06 1.9649709933805632e-05
1900 5.2222138921702356e-08 2.846467058612596e-08 2.4287680394466515e-07 -3.900755981441e-05 3.8364093912499055e-05 0.00012266163193283517
1168 1.0061876262386528e-07 -1.9072124376330195e-07 -7.217079047175207e-08 -7.572334892658997e-05 0.00013082854042363807 -0.00017254269031571917
1718 -5.8597767334697064e-08 -9.832370824927674e-08 5.036627231293551e-08 0.00012827340991680692 -7.80230935517858e-05 0.00015743047495220294
1714 1.1719291002076148e-07 -6.64274847740396e-08 1.938986342801069e-07 -8.204282985319969e-05 1.789001126361043e-05 -9.857269615200153e-05
2125 3.021694925920108e-07 2.783587627700347e-07 6.072319378164992e-08 -0.00013596894552399665 0.00012627741838303993 3.154790792312368e-05
1979 6.090134246088299e-07 1.522018932039074e-07 -6.586296382669203e-08 -0.0002502946196473779 0.0001493126000167993 -0.0006334741741499608
1892 4.898150070471864e-07 1.891873023962314e-07 -1.2980142551389613e-07 -9.606468663382877e-05 0.00012120661672908183 4.285567391162026e-05
1963 -1.4517446198302936e-07 -5.730543017529095e-09 -8.138711839765724e-08 -0.0001432931246732747 -1.126339577807039e-05 -0.0003517190614618304
1773 -3.0283973480350876e-07 3.871560608004104e-07 -8.792567388671838e-08 -0.0001368574683545887 -8.445661749915366e-05 0.00015527225454571133
1733 -1.2850167525672485e-08 -9.51243383452933e-08 -6.081844174741133e-08 -4.324545812465927e-05 3.0693742674958464e-05 -7.005395771043959e-05
2004 -2.390920732125259e-06 -5.902775850505306e-07 1.5410058096707482e-07 0.00011387313607074182 -0.0008633697882229918 -0.0005825321798389538
1942 9.96266193273836e-05 -0.00013642896304826057 8.6375869677851e-15 -0.07527361475121594 0.09530949251422417 -0.07228689772338315
2103 1.1594703547028833e-07 2.5177426842694313e-08 -3.2317042915010634e-08 -7.365647660325758e-05 0.00013164905332150434 -0.00014715556132887292
1336 2.6337318733715027e-07 2.5589993836544167e-07 -7.924897272543566e-08 3.3681045729975326e-05 -2.565482491518568e-05 0.0006543731983304403
1943 0.00013281869377027014 -6.636928273800205e-05 -7.26519594733595e-15 0.03173575440907909 -0.09514597617723901 0.03754806455753994
1846 -1.4341497138409544e-06 -6.346684205738194e-07 1.1183326394658433e-07 7.328647141138197e-05 -0.0005307100585426566 0.0007510640488634126
1932 -2.499951344073745e-07 2.410351570842935e-07 1.112412879566437e-07 6.102406123153657e-05 2.2939049492046146e-06 -0.00015613371668932857
1928 -4.677734903742871e-08 -7.205509819076741e-08 -1.17759183397624e-07 -0.0002730521552252359 -7.181324075489753e-05 3.476217414229607e-05
2028 8.999234280342377e-08 9.505110878097605e-08 4.114890661382282e-08 -0.00016305340718638278 5.655099292178412e-05 -0.00024848081494270726
1037 -2.1683336565113235e-08 -1.1618759488136857e-07 -1.1761619453843185e-09 9.33841822289849e-05 -5.703520390328006e-05 0.0002458681064174862
1701 -6.556221084206633e-08 -8.521256142482161e-10 -1.3641824183506733e-07 -0.00017410470259614222 -2.8327076020835286e-05 -0.00022706866814585773
2073 -3.333148969227257e-08 -6.643026559994405e-08 4.659314194879923e-08 2.963973014322944e-05 -4.7461679325580196e-05 0.0003259621505935517
1982 1.293723314186086e-07 -5.316569456337697e-07 8.056637540632186e-08 0.00028333869383602894 -1.4476123604989618e-05 -0.00037359560043335007
2040 3.161155061022351e-07 -2.1007900132650594e-07 -4.3381748538612426e-08 9.766182634254867e-05 8.676534401424118e-05 0.0007819524503575449
2080 2.6689958644407504e-07 -3.362835091986928e-08 6.109028354452244e-08 0.00017582083767958076 0.00010239128697767016 -0.00022378013520881577
1921 -2.588417506663023e-07 3.933748755193534e-08 7.989220973423002e-08 -2.793077103117866e-05 6.15309648640261e-05 0.00019298529443921935
1689 -9.340609656345828e-08 -8.075985563613099e-08 6.30766407710436e-08 0.00012391556330349065 -6.02777603067629e-05 0.00013128412766699152
1684 1.7202932975381878e-07 -3.874349952623205e-08 2.3626953511759416e-07 -6.45815152057688e-05 0.00018559311571289904 1.5127707926980328e-05
1891 1.8820411803089756e-08 1.8312618169297885e-07 1.528786750926481e-07 8.269250936944852e-05 -0.00011760136080940778 0.00018575294903551415
2107 -4.0941838180775484e-07 5.941964588565751e-07 -9.150996389740845e-08 -0.00014154686605338928 -8.904623498965707e-05 -7.452812393715374e-05
925 -2.596235022415987e-07 4.3017652701586424e-07 9.705300430404558e-08 -0.00021413296572340404 -0.000302384016042467 -0.00036628211964309865
1871 -6.005467568849672e-08 5.222459639883118e-07 5.49629426084319e-08 -0.00016842807471409335 1.764668774097974e-05 0.0001436921923201508
1128 -1.5237831570146776e-07 3.3529995654895786e-07 -1.4999301166210599e-07 -0.00018104971176755442 0.000152198647037654 -0.00014699520189965753
1878 4.167755230079488e-08 -1.4226252077394476e-07 1.1849922016463076e-08 1.1111019722990469e-05 7.516282840168359e-05 0.00014921448215216026
2064 1.0575972003720094e-07 5.8938720107130225e-08 1.5544717667864455e-07 4.771271708370358e-06 -0.00012720511280590424 0.0001343479834977627
1368 1.7507013801121766e-08 -1.0534560482870515e-07 5.495132585019681e-08 -0.00015708259746554732 0.00011698456217685507 -0.0002586914433601018
1696 1.1088228026006201e-07 1.5302964134324632e-07 1.8684248928840993e-07 1.0003409955187631e-05 -5.113971105227209e-05 0.00035572128849740276
2188 7.25948927102658e-07 -4.329135348391069e-07 1.3258799178193814e-07 3.816250671228133e-05 0.00015933000543717584 -0.0009131600401165851
1606 -7.068648691317178e-07 -2.1403486753690683e-07 3.456082789766987e-08 2.9584143856670533e-05 -0.0003086541054973807 -0.0005605821744385195
1621 -1.3429172413099235e-08 7.836294665565623e-08 -5.041087452794721e-08 5.283245683565162e-05 0.00017538368678380475 0.00036365561556344847
1673 -1.7652143456924832e-07 2.986910090044147e-08 -3.6663618301484107e-08 -7.521906416973346e-05 -0.0001357259362802306 -0.0002603880802341751
1636 1.555626538883632e-08 2.991209561344513e-07 -3.592329161123546e-08 8.698543431005372e-06 0.0001174625254537026 -0.00019337054911819623
2056 -5.987781664448795e-07 -1.4424218668730394e-07 -3.169013309101516e-08 1.1237044093951073e-05 -0.0002699558184381684 0.00025138712777244583
1697 9.974154357629475e-08 -1.5043521980875562e-07 1.441988567813889e-07 8.453901418073383e-05 -0.00010173766807763392 0.00014184815527292915
1830 8.048104318656647e-08 5.944035941389311e-07 -6.04703361381129e-08 -0.00015245357408555555 0.00011270857813272667 0.00011732245839826997
2032 6.597065087904044e-09 3.5464565898868496e-07 2.021408567241435e-07 -8.705764799271008e-05 -3.5035955341961815e-05 -0.00016939048833876418
1788 -1.91504533848794e-08 4.6595678894296797e-07 1.670360878847157e-08 -8.767606312652092e-06 6.213960858645098e-05 0.00010903394873670556
2114 2.620641771746913e-07 4.306534634590592e-07 1.5525654585216574e-08 -1.3777921884660038e-05 9.151219504467067e-05 0.00019919070265089862
1626 -4.547496539875092e-08 4.320904427539769e-07 1.8050805692549584e-07 -8.6851194527131e-05 1.1772022503960853e-05 -0.0003571450762064859
1826 -7.1489621526428805e-09 3.7298020210678644e-07 1.4608694545459217e-07 -9.64011998193707e-05 5.3207985456964045e-05 0.00013923227781186627
2126 -3.692893631232443e-07 1.6876333998583086e-07 -8.439589397738238e-07 0.00022543291265889886 2.8026659836141528e-05 0.00012503053271490755
2124 -3.4776121475611883e-07 8.033581842036838e-08 -1.166315695878314e-07 -0.00012896342812562824 -0.00022973812230459557 -0.00010125698696459423
2009 -3.678702112751386e-07 -2.946589579440447e-07 -3.438062335847089e-07 -1.0166890914118633e-05 -0.00028425482680215176 0.00031119464191820364
1377 -8.833630634369983e-06 8.223360915941429e-07 -7.265192756947056e-15 -0.0014712830492085182 0.007946362888911119 -0.0007187821250712566
1974 -0.00012891409035726208 -1.1962943210149275e-05 -7.26520037399154e-15 0.09617083221459075 0.012671251351723117 -0.03062346449145143
2085 -2.3533292434260167e-08 -1.5423361988515493e-07 -2.630117445279139e-08 8.1249516266615e-05 1.9417722044510896e-05 0.00010446499813297431
1939 -2.609204473079937e-07 -1.703555912728649e-07 1.3989058342880356e-07 -1.8533778148240993e-05 -7.9064387419615e-05 -0.00018516309179257567
1723 -3.4454735518050535e-07 -3.3209933054833675e-07 1.276863976472906e-07 0.0004548021970266765 -0.00038897335719015677 6.390071545840439e-05
1683 3.5316394696518905e-07 4.2653523403398146e-07 3.15575726644205e-07 -0.0002101599676094653 0.0002792538921851843 0.00048638947185254537
1849 1.4153640022430475e-07 5.62564863978799e-07 -3.129860711134864e-08 -2.1787362514136927e-05 -0.00011631266644631153 -0.00015612590513085876
2123 1.5402036961436026e-07 2.5975900538140563e-07 1.3344468141540433e-07 2.625579196380822e-05 6.577361951151556e-05 0.0002344549251907734
1959 2.975332781939227e-07 3.453124136519885e-07 1.92865273900069e-07 8.77909304153935e-05 -4.135502336662555e-05 -0.00024309735619948831
1624 4.910996164969123e-07 5.113082617932344e-07 1.2245300101946026e-07 -7.327137581451575e-05 0.00012915137961721113 0.00014441806181727601
1923 1.3024535848528e-07 4.7477586540713883e-07 2.5689548942319044e-07 -8.009372970842534e-05 7.037702975917862e-05 -0.0003365469639159745
1799 1.7435868183464317e-07 -3.940797264017879e-07 1.0853575720908442e-07 5.547486432662266e-05 -4.981188300682086e-05 -0.00028302306996914504
1851 -2.2791640747923235e-07 2.806042563697932e-08 2.271191862419082e-08 -1.9778050650267522e-05 -4.7819278440808724e-05 0.00010197053829099612
1807 1.0410228301933616e-07 -3.088318646887156e-07 -7.387448811003434e-08 0.00022659056744318314 0.00020032223528801564 -0.00036694055426625855
1478 1.1879653918010329e-07 -8.668664518215828e-07 -1.1511318879431978e-07 0.0004835685684314548 0.00020413243209514302 -0.0006207943405294466
1631 3.264656567750405e-05 8.338509175861655e-05 -8.11457452487449e-11 0.019903204646019544 0.020891211353434462 0.08226680559960597
955 2.371602998300602e-07 -5.101245643762805e-07 4.457372365386241e-07 -6.0509741246594344e-05 0.00048508871157503474 -6.912769995673347e-05
1446 -8.037707547310128e-08 1.7026720449494086e-07 -2.7291846729593372e-08 -8.35071659305959e-05 -0.00014254312091379495 0.0007340417358485794
1836 8.306041701349969e-08 1.9668328613047488e-07 1.0164386676754443e-07 3.4144316827150084e-05 0.0001705156123703784 -0.0006091483415939236
1653 2.7980012213634124e-08 -2.07781058961746e-07 1.099251174910437e-08 0.00010169149843130692 -0.00013219159662473237 0.00010055475656648229
1499 -1.990589551755145e-08 -1.5513286292864898e-07 -6.003301570131332e-08 -7.0779531545091e-06 5.6554500988420956e-05 9.561281765470367e-06
1722 6.227777622448806e-08 9.17626793254265e-08 4.1213270542089744e-07 -0.00020435720553195125 -2.5483174418710052e-05 6.157751217049537e-05
1049 7.1203427858883e-08 7.493342129946062e-07 -1.9785704516419636e-07 -4.492399621653815e-05 6.619066392081016e-05 -0.00011859199621856527
1275 -3.274792325668409e-07 -5.040488870581693e-07 -2.2709896600636706e-07 -4.1896468815233955e-05 -0.00015561930092496617 -0.0002564986287898507
1101 3.395557031649081e-07 -1.039683862358074e-07 -7.26561095510091e-08 -0.00020904746253668307 -1.1123148236981418e-05 -0.0003603306210614346
2145 4.417366060004336e-07 1.3277841442174246e-06 -1.0236680458157318e-07 -0.00041831588695936836 -1.124361493587961e-05 -6.40920049508695e-05
1319 5.642655630846025e-07 3.8669074892647436e-07 -1.4413629733107688e-10 5.959036616065615e-05 -1.4771084409584504e-05 -0.00018621185052467387
2177 8.04042467063784e-07 2.3458844256922205e-07 7.591175520799716e-09 -0.00020576506697650513 3.0064716481109426e-05 -0.0001134772198235128
1184 2.0960661014217574e-07 1.0706280637404113e-07 6.004830641964832e-08 5.7031537610108886e-05 -7.57939784708377e-05 -0.00030408760659712646
1904 2.0734429382469294e-07 -3.9640724210395777e-07 -5.528536664906859e-08 0.00018710024816002654 0.00033193890291814096 0.0005288985043398443
1856 6.645206371946941e-08 -7.831376782661815e-07 1.8917934284665731e-07 4.6744177944684275e-05 -2.2358075715628027e-05 0.0005564689293434356
1459 1.2692643783319188e-07 -5.053461834178575e-07 2.364047587398836e-07 0.00037826285176618436 3.404561745344219e-05 -0.000289220934501282
1841 9.361180317112264e-08 -1.4871840029568776e-07 6.508941404495445e-08 0.00019025338975233016 -1.9915008272505387e-05 0.00029565463717777285
1289 -7.773534261811555e-07 3.548209677650897e-07 -1.5231778612916391e-07 -0.00027079620559658003 -0.0003544440493426228 -0.000697669598248184
1912 2.632526850338906e-07 -1.21590833323865e-07 -4.9252920281045564e-08 8.517269978537903e-05 -2.285962799574903e-05 4.8939317817176216e-05
1770 -2.4342539161882203e-09 -1.1783817170372867e-07 -4.6223603845346174e-08 4.377563679459365e-05 -9.387201376618428e-06 -4.050186739608786e-05
848 -2.2953079473165713e-08 -1.3524085539078547e-07 1.6252903561992847e-08 6.475091782113484e-05 -6.904954681950302e-05 -9.309350447439425e-05
2035 -5.086881764155846e-07 7.224477299402869e-07 -1.1186711432811813e-07 -1.9619844841722395e-05 -0.00042398989543855343 0.0007388928297946093
1815 1.3208984712935468e-07 9.041789805336117e-07 1.2771324629987006e-07 -0.00015171048437026004 4.78953081997374e-05 -4.862228627492122e-05
968 1.240398644068857e-06 -3.55005556656977e-07 1.1101023105444105e-07 0.0002129652810668879 0.000543451748512132 9.078685098542214e-05
1371 -1.601559024512397e-05 5.675864091605124e-05 8.638545498495047e-15 0.0361254904433817 0.010923108162560813 -0.008977383700283625
1759 8.509470769205223e-07 5.124348764896648e-07 -1.413207776341574e-07 -8.073518179423377e-06 0.0002242332448806921 5.5787466312082745e-05
2026 9.85370885045865e-07 6.780580150098152e-07 5.8349392484960245e-08 0.00011372573516038699 -4.328805480713232e-06 -0.00043856623093927377
2191 1.0347900111781665e-06 3.6251814458692425e-07 -1.7186696305157677e-07 -0.00019208825358261048 0.0005689668956650906 0.0003351097944087699
977 4.974604885386874e-07 4.270582102412392e-07 -2.2689446402506758e-07 -0.00010287795495677972 0.00020921356079546134 0.00034699365862442873
1832 -1.5419896301766594e-06 2.667996956499057e-06 5.687925417782424e-07 -0.0009324014696841795 -0.0014453426010128288 0.0004792088075634173
1074 9.237110414854002e-07 -9.250398419223114e-07 -2.788979585731573e-07 0.0004299523650692393 0.0005570793722166074 -0.0004717070337750143
1676 9.305476146994592e-08 -5.91508310316133e-07 1.7049074984988091e-07 0.00037846441355337277 -8.221398091142361e-05 -0.0007552253336917543
1638 -6.219253683037884e-07 -1.2260480438691349e-06 -7.338762079850896e-08 0.0003665338406848307 -0.00021151494035395437 0.00020630891924059585
1810 -3.472739127819113e-07 -6.234916259542435e-08 9.858463648400562e-08 -0.0001319101105675064 -7.496040398728782e-05 -1.5609429305755353e-05
1433 3.115260487362729e-08 9.617749627463958e-08 -1.7691219483611899e-07 -0.00013596977975214921 1.7059067650375787e-05 0.00010421253866717725
2112 -2.733617830104598e-07 -4.1087649477724945e-09 5.242281393058283e-08 1.795296706552707e-05 -0.00014200596606038195 0.0002739019620693863
2171 -9.034078359400114e-07 2.5524668524995916e-07 -6.156265396169016e-08 -2.533010365123042e-05 -6.779114276639456e-05 0.0005305913211979177
1903 3.2574361004336673e-07 -3.3834979387352856e-07 -2.627483082421631e-07 0.0002542843671777051 0.00028790719829140625 -0.00032058790197751297
1686 6.517497499701145e-07 1.228142048614814e-07 -5.409257089874067e-08 -4.155824455195522e-05 3.170006687045567e-05 0.00038586799975189284
1920 5.223335795463886e-07 -1.3494397405593732e-07 -1.1186755986970482e-07 -0.00023345892667901095 0.00019462405058929635 -0.0009306478324055026
407 5.851243586192007e-07 6.116160018206313e-07 1.2061947786787365e-07 -0.0004480427411547358 0.00029070623943818294 0.0008845562489080569
1823 3.438328870139496e-07 3.3977745265045964e-07 1.545828829643509e-07 -8.657977731816516e-05 -6.322372556401696e-05 -0.0007313614959359999
2016 1.9967539943338135e-07 -2.319888446330515e-07 -1.4417132566358484e-07 -8.320211921085032e-05 0.000222958801485628 0.0006238373975968807
2156 4.904197048869539e-08 2.8753684065375545e-07 4.473748420326628e-08 9.326692502161003e-05 -3.77056184383622e-05 -0.0002011434478369274
2161 -3.459604451547229e-07 1.6689087823832946e-06 1.4366966854867015e-07 -0.0004945611313978067 -3.165968072583893e-05 -0.0005086484927441458
1945 8.908915971046199e-08 -2.980325606796531e-07 -9.14333412419855e-08 -9.07682171942848e-05 -0.00014369562730686688 0.0007203794958919825
1964 -2.451248940363541e-07 -8.032219399226525e-08 -7.416340132695976e-08 6.383506559853918e-05 -6.633480423351708e-05 1.850834740120625e-05
1720 -6.873185802061504e-07 2.1500704162851767e-07 -1.6217008225129033e-07 9.330544845021297e-05 -0.00024422702598003954 -0.0001551169071145615
1702 -3.5145708383701954e-07 -2.6740080982787883e-07 -3.938828362171265e-08 2.4117179583862476e-05 -0.00022394419509896938 9.062203467552419e-05
1273 -6.898310416043808e-07 8.466859723972128e-08 1.1063065663247444e-07 -1.1745201710502387e-05 -0.00029528724264383475 -5.406479041887688e-05
1819 2.900202236280241e-07 3.77302520301919e-07 -2.622394632490239e-07 6.154211011727421e-06 0.0002975811434363986 0.000953979780814607
1695 1.9481217734084867e-05 6.69994780709806e-05 -7.264238520265508e-15 0.06572040113363742 -0.006906499965627628 -0.010094806942267599
1725 1.1236421055775614e-06 2.8999996493951074e-07 6.389565714122455e-08 -6.814774029808998e-05 0.00027337111158205285 -0.0004067299238636915
1983 5.509959053906233e-07 -6.343660083021605e-07 7.439558638853979e-08 0.00042545239784377213 -0.0001085179948338411 0.0010285323544929423
2140 9.860215861880743e-07 8.643721516757414e-07 5.77124815260571e-07 -0.00010390549669308673 0.0003493866959443752 -5.40036120448093e-05
941 1.003917957347279e-06 -5.252263185754811e-07 -1.109719436491396e-07 0.00024302879094251887 4.630797402118693e-05 -0.0004069416375918699
1742 -5.430403919829082e-07 7.078770221636021e-08 -5.686150056356452e-09 0.0001079899451647813 -0.000216545408442854 -0.00030459618740961937
1911 -3.32063970732415e-07 4.275023747136268e-07 -1.8192782285272136e-07 -0.00012849182343007854 -5.122005802887257e-05 0.0002834632302610453
1315 4.0514969595085616e-07 -4.732924130444002e-07 -1.8718198391857457e-07 0.00010126709319760217 8.304891048335637e-05 -0.000575932945611017
1837 -2.8200803381749864e-07 -1.3281966694401632e-09 -5.563737594357384e-08 3.734003763830169e-05 3.2454252020391736e-05 -9.326648400065123e-05
1822 -5.324505934528761e-07 -2.122839627329061e-06 1.2304100959929982e-07 0.001233758495910833 -0.0003426066619568339 -0.000558620167463025
1674 -1.114166075112692e-06 -4.5390234304523387e-07 1.3146906458293173e-08 0.00023379619865567035 -0.00046075438615718746 -0.0004325747344819459
1011 -8.947089751627463e-07 2.1821718040254753e-07 -7.784527768260382e-08 -5.471284814687084e-05 0.00016871760598877446 0.0004283608006596803
1592 -3.4385289894806087e-07 1.7780642681732585e-08 -1.4296491759561583e-07 3.681051437363179e-05 -6.53430034629267e-05 0.0003651067531863643
2020 2.284460078945448e-07 -2.362866902024744e-07 -5.836796602488173e-08 -1.7927514922281212e-05 -4.636490418531221e-05 -0.00028218585919597057
507 -3.713767245125102e-07 -1.2600768030507734e-07 -2.0389525711504385e-07 -0.0001327631455184768 -0.00014849053981936527 -0.0007101051225771053
971 7.409842279315356e-07 -1.3047330819453624e-07 -2.357386215243401e-07 0.00024188235626201036 0.0004086898353631322 -0.000999003026841192
2054 1.1388665670042555e-06 -1.5528169539065605e-07 2.0188783690472968e-07 0.0005080781434856041 0.0007494531378637584 0.0006862710324518432
1848 1.5862980548649233e-07 -6.345767576234299e-08 -6.209730997027707e-10 0.00017217812924138348 -2.6022947359326338e-05 -2.73793790583315e-05
1937 3.86259907232887e-07 1.9216155640096364e-07 -1.787538464438582e-08 -0.00016288160430848913 7.612490529199586e-05 -0.0003498364101556483
1614 5.230774707286988e-07 -3.717625184482753e-07 -1.4334743688851905e-07 2.7456423803638602e-05 7.402290932755874e-05 0.0004613728124448429
2132 1.6712082753745772e-07 -4.2426014234998597e-07 -8.706125031509388e-08 -0.00015618552769366807 -1.466042835880047e-05 0.0007155457633575183
1633 -1.6147846884659738e-07 4.2033702177539303e-07 -9.27512019761377e-08 -0.0001064582943604105 -0.00013117602199949564 0.00011601032991489457
1389 1.7700441633597534e-05 5.164543704132204e-05 -7.265195075387966e-15 0.032078104765027836 -0.031710218170158816 0.12270916843030999
1768 -3.1761977227685306e-07 -2.6054723329649237e-08 -1.3011191658322417e-07 1.804158918993794e-05 -0.0002577119938472138 -0.0006418533656113091
1030 6.906457785913271e-08 6.744675280546575e-08 4.880135933492084e-08 -0.00017118353441655733 1.3695013044722812e-05 -8.160713631599818e-05
1936 -9.696248743361923e-08 8.936600091780151e-08 6.851849469187475e-08 -7.25798899015033e-05 -4.950572460376431e-05 1.8924529923853873e-05
2115 -2.1062959628556968e-07 -1.3937583452987119e-08 3.529700661511376e-07 -0.000507942406506491 0.0003273891120769791 5.816699976104769e-05
1833 -5.79602532905066e-07 -2.954250067294893e-07 3.0887825306630835e-07 -4.099416985570536e-05 -0.0003323869989731863 0.0011632032789160329
2092 -1.103749119217749e-06 -8.349839984507038e-07 -1.64146559195843e-07 0.00038805430010061914 0.00018451043617597078 0.0007546834377971426
1015 1.9879432578666923e-06 5.765718342874345e-07 -6.553085569446754e-08 -9.290289800543211e-05 0.000252129251809254 -0.00044581780212962557
953 2.4405327545916137e-06 2.5217958460194846e-07 -3.057865455168341e-07 -0.00037954379797055035 0.0007985046255575281 -0.0003872325789612595
832 1.5044121655701854e-06 -4.778475084716503e-07 -1.9707467438672922e-07 0.0005542472803096068 0.00041321799333757226 0.0038139668645785904
954 2.6302328584985448e-06 4.0110185925456774e-07 -4.569499243536275e-07 -0.00022274962814355172 0.0006945307058484877 0.00411755676561117
2139 1.5334860859468418e-06 -4.8668102022296444e-08 -2.4334382731649033e-07 -4.4423942791335654e-05 0.0005335778054749255 -0.000766595966586717
1727 8.41061829053203e-07 -3.827352109165339e-07 4.2178139495145843e-07 0.00021241022210215403 0.0004716574101219192 0.0001265638377233592
1357 5.530490330242244e-07 -4.1482944739036876e-07 -1.3868829157439227e-09 2.0505594824773537e-05 0.00012809580856391607 -0.0003916237521021835
1535 -1.942416661622008e-06 1.727401348729975e-07 -1.0049227465763179e-07 5.7899022851154206e-05 -0.001076942263677724 -0.0003126620529922426
2102 -5.536412734455555e-07 5.559343447340407e-07 6.433345400981835e-08 -0.0002659415627466644 -0.0005565624198692598 -0.00038415115561625003
1154 -1.2356304673042634e-05 -4.6769621839994006e-05 -7.265204401156422e-15 0.06376215334183803 -0.007712665935007451 -0.12120629161859264
855 -7.118549312504767e-08 -2.5690537372911134e-07 6.780445252033803e-08 -0.00021922211418986759 0.00024254067467471146 0.0003625673213459593
2173 2.4776276446545025e-08 1.5746227268615097e-07 -1.7154634087246286e-08 -0.0001018021223159103 4.96935260536592e-05 -4.881415270005224e-05
1825 -3.626820258356625e-07 -3.80215353722841e-07 3.6320005920319635e-07 0.00036880185336458763 -0.0003770717989225319 -0.0005189741996971408
1350 -1.4586811928767762e-06 -3.805064598115575e-08 1.9107682828417915e-07 -0.00012650582964903007 -0.0005250788363215384 -0.00013154261473561526
1180 -5.809389329472158e-07 -3.906589709737136e-07 1.265123347573191e-06 -0.00023716939148993044 -0.00022646565193145876 -0.0009874694315977718
1258 1.975917882157541e-06 4.1869878165668896e-07 7.6900757019319e-07 -8.55034268585623e-05 0.000799249176028213 0.0006689164082356578
1746 2.074589769919506e-06 4.990268548297298e-07 6.147334241107762e-08 -0.0004989364975675159 0.0008769680648055216 0.00040543505089487875
1209 -7.431984756587621e-05 -0.00010336674427934692 -2.7729932424372146e-14 -0.14476887310461342 -0.0907049198581957 0.012628728253525925
2051 3.6259080181974586e-06 2.1251078676339226e-07 6.994926161697108e-07 0.00016272163055112626 0.0007624682922861495 -0.005899029612987793
1734 5.711043758629215e-07 5.629254596922539e-07 -1.9333912082630554e-07 0.00033459230953539383 0.0005249047165785086 -0.002341944750762873
1043 8.907547881072179e-07 -1.284157146378932e-07 -1.3389567132319878e-07 -0.00019525433458045363 0.0001354789452663502 0.00010286216771576187
1406 2.6024553902391553e-07 -3.919559653043431e-07 -5.7852446250169855e-08 0.00022628492799365058 5.140661207584917e-05 0.00038810598010243674
1225 -2.217155740041474e-07 -1.2784935034319357e-08 8.03927552457918e-08 -0.00016664532448043177 -0.0001704863690815839 -2.853172290850853e-06
1977 -4.26472160496287e-07 5.826995989893854e-07 -2.988800895780012e-07 -0.00024325568806247218 -0.0002387782377782003 -0.00017191236731324436
1147 -2.2938347561420335e-07 2.9868522198314957e-07 -3.037845977415619e-08 -0.00012190758943236973 -9.539437297515073e-05 -0.0006213712194601507
2024 1.0146142978284783e-07 -4.123352776100461e-09 1.870930375365012e-08 7.457191559130357e-06 -0.00010020598943786326 -0.00043164900596911744
1975 -9.747419925207814e-08 -4.967617628567435e-07 2.0498584873690477e-08 0.00012835123757109 -5.983717458700192e-05 0.00031713046367930057
1481 -2.4113119625181248e-08 -5.841537542714972e-08 2.457771502621186e-07 -7.519718737122657e-05 -8.833579596096686e-05 0.0001346495970403485
1081 -4.71596310737704e-07 5.4614841590288707e-08 -2.0911954931062435e-08 8.385714568111511e-05 -4.6686955631709304e-05 -0.0001890246902729112
1713 1.544450183178912e-07 -2.317236939212778e-07 2.3966465775248604e-07 8.142624242329169e-05 -0.00021967309429297196 0.0004492136815960399
1958 1.1488775857420042e-07 -7.76482344098535e-08 3.971307932116205e-07 -0.00010888083197339362 1.6579248093766493e-05 -0.00014820041755897234
1610 7.400196086333229e-08 -3.66364089157037e-07 -3.5956311746786125e-07 0.0003006590041315022 -0.0001288217379234917 0.00023498579982968396
1411 -1.251990889803024e-07 -1.5842197016228094e-07 -1.0838145246077576e-08 9.513678371873573e-05 -1.3774436324268453e-06 -7.786951924014556e-05
2149 -3.9939603990592913e-07 -6.991937990345922e-07 -5.535824939759191e-07 0.0008215879281967041 -2.5199949962549845e-06 -0.0011840114214684966
2162 5.291698510262605e-07 6.181532740589132e-07 1.962695362715652e-07 -0.0006466851311560037 0.00018952474056992515 0.0011943445735289847
1750 1.4316495617682503e-06 2.178755195659968e-06 -7.368665272002262e-08 -0.00027115123088934277 0.0007016347755920341 -0.0009769148047418213
2002 8.987936872595373e-07 -9.161482908738315e-08 -7.685999634014923e-08 9.126797496048647e-05 0.00035997355045404257 0.00021747775874216758
1616 2.947918646987659e-07 1.719246141400331e-07 9.737612411298997e-09 -2.2652994062729476e-05 -9.098881381173956e-05 4.4421529113059567e-05
1791 1.2219935379519761e-08 -9.256691660342732e-09 -7.89689019090851e-08 -2.3225308962521442e-05 3.056140049497735e-05 -0.00012302083599805108
1948 -8.314480844296105e-07 2.7639429232590843e-07 1.8078938775468014e-07 -7.37657601537903e-05 -0.00038643931361782185 0.00021325100860437274
999 -7.080551881308831e-07 1.6592443992422462e-07 4.19247191566863e-08 -0.00010438413835876511 -0.00022296922858607742 0.00017404320600957767
1787 1.4144359210535468e-08 -5.360581348468613e-08 4.0401744296790105e-08 4.2004650484158765e-05 -7.104754415895799e-05 -0.0001973582643269808
1378 3.4450650862447e-07 5.984504176029166e-07 -3.661918495124435e-09 1.979890993282122e-05 0.00018110218703728073 -3.980335130161327e-05
2158 -1.0329797737041516e-08 4.7736754163803354e-08 1.2146951203170276e-08 5.23017344255761e-05 -0.00010334329987171772 -3.2180558862451703e-06
1783 5.4602194771221616e-08 8.940974320943582e-09 -6.53001813723272e-08 6.526044665608973e-06 5.310920743695441e-05 -1.5599687807562208e-05
1161 -2.7030125602937773e-07 4.354811853080728e-08 5.377960200623168e-08 1.3190355101292837e-05 -0.0001034230113925378 0.00010268968189874966
1235 2.963255917214453e-07 -6.781951322508774e-08 7.294133745616978e-08 7.437320328391292e-05 0.0002534149547857536 4.86422168674129e-05
1513 1.7575111408014593e-07 6.046516393029766e-08 6.439343559559241e-08 1.9720325758746283e-05 6.840052889619596e-05 -0.00010916600495572857
1505 3.5894288160482507e-07 1.9737834292547122e-07 -1.561175503797728e-07 3.087231033101875e-05 0.00015303582187513797 0.00017411413366706622
1245 1.6602607586783048e-07 -1.9911617288732e-08 -6.44874079101243e-08 2.089145245069979e-06 -8.343116800717855e-06 -3.8165331624107106e-05
1158 1.873628504964547e-07 -1.2261951763069516e-07 1.6507791350714575e-08 -1.7018327371846444e-05 9.549649220632463e-05 4.496810052760635e-05
1160 1.9308535043374832e-07 -2.661106535114997e-07 6.647561505661656e-09 -0.00024295478259686736 6.137677149902325e-05 -9.583896852365583e-05
1863 2.0228258649712869e-07 -5.125947772578684e-08 5.241550296885479e-08 -0.00010392578498650002 -1.0986407610871138e-05 4.7392023546810006e-05
808 1.5750136176626543e-07 -9.685614494755965e-09 -1.1814354114928494e-07 -8.054725986466145e-05 -0.0001041036245584376 3.221941505522656e-05
1271 1.1558143611727514e-07 6.381181551895772e-08 -6.416946071744305e-08 7.215542563396379e-06 -0.0001689349963545744 7.915029931419914e-05
1643 2.2100085823775042e-07 5.677251267079415e-09 -1.534613959149691e-07 9.46796126107098e-05 1.7140894576396022e-06 6.62043440707958e-05
2166 2.552040034085675e-07 6.007639895336745e-08 5.289027257580016e-08 -1.791475410630299e-05 -3.157515597389134e-05 2.115313824495146e-05
1879 -1.4548065124577064e-07 1.1490515902421429e-08 2.453037796355122e-08 5.914189411983058e-06 -0.00012081529837477213 6.340264559408602e-05
1157 2.3868954702048626e-08 3.919941039716137e-08 -8.460487974469712e-08 -0.00013710264122670474 -1.1949123506235767e-05 6.963852986696282e-05
911 2.280734999856038e-09 -5.109938437279973e-08 -4.364507369221696e-09 8.123021791896385e-05 0.0001813006360861035 0.00023705637351661618
966 -3.4237370766425093e-07 -1.7159697515778375e-08 2.984447118415651e-08 2.614992419852245e-05 -9.680220817274204e-05 -0.00020298063633076516
806 -1.1632103609004647e-07 1.967812051427748e-07 7.784873086230635e-09 -0.00016606765947317485 -0.00010046796638200487 -2.404098525188866e-05
1552 2.456937225059768e-07 4.2114362304761817e-07 1.3196308289840143e-07 -0.00014072115429463554 4.272044285606703e-06 -2.839503609090894e-05
668 2.646969367533312e-07 -5.5282469944160864e-08 2.660141513877764e-08 -2.5400092644955737e-05 -2.8387752417372772e-05 -2.941724973397913e-05
2105 8.228263264357352e-09 8.209287962486079e-09 2.5706394564558363e-08 7.602629398442909e-05 -0.00023278524320355604 7.938471617393481e-05
2058 5.346124107609771e-07 1.907779390124711e-07 1.6981887633926965e-08 -0.00024099381027221182 0.00010442487236842296 0.00017814799436229525
1739 1.632223354110152e-07 -2.3123338804395658e-09 -9.835397903209659e-09 5.21737295743124e-05 -0.00015857818660153572 3.59198955787106e-05
1898 3.236975656951321e-08 8.480087490239703e-08 -1.900742283022115e-07 -1.3328012026791462e-05 2.4189792171096788e-05 -1.002242999750467e-05
1731 1.7971576481730027e-07 2.3764971057414749e-07 -1.5155939497730017e-07 9.808253990520298e-05 3.8691765290821795e-05 -5.4812526831113006e-05
1417 3.694468309997814e-07 1.0383223713564106e-07 -6.984338005850654e-08 5.1882443895056965e-05 3.9986001947599965e-05 -1.1377493171880867e-05
898 3.275988931183426e-07 1.4755832824836118e-07 9.253771100069197e-08 -5.61920485290979e-06 -0.00011938657454337006 -1.049414469324354e-05
2061 2.985354491331157e-07 1.450807041910512e-07 1.9850403466885523e-07 -3.1227490244046474e-05 6.282900462205128e-05 -1.4514126503965256e-05
1698 3.303097220683853e-08 1.220087967504289e-08 3.1331067125377085e-08 -0.00015387568847939054 3.7294383542529414e-05 -8.170753138367752e-05
995 -4.2150557446992686e-08 6.186949337553648e-08 1.8029692770412617e-07 0.00012062580610311246 -1.618933816748763e-05 -5.47728420159982e-05
1458 1.6319087291977059e-07 -2.5852371771566687e-08 1.8896385366292268e-07 2.553077880527666e-06 -7.361927635405491e-06 0.00011486659242003155
2083 3.0012321383946447e-07 -5.0000354450781675e-08 -4.556361848465535e-08 2.6595529957128256e-05 0.00023358801916325097 -9.304183129759065e-05
1263 2.300785582721485e-07 8.841858447125572e-09 7.961947511542568e-08 9.216801417558348e-06 -0.00010487275187937032 1.295763875351588e-05
1881 3.5141310455782036e-07 -2.0042084169284807e-08 -3.336171490708562e-08 -0.0001615495896010171 2.9698880379756837e-05 -3.413833382891842e-05
1786 2.2472263812572272e-07 -1.4827674530288818e-07 9.310036464460045e-08 2.90675777358996e-05 2.5416041155795384e-05 -3.062362613815473e-05
1986 1.2508014408817994e-07 -9.007722230415073e-09 1.67734193906076e-08 -3.23674259517964e-05 -9.124130388862335e-06 5.042891614588641e-05
1895 2.527399889718836e-07 2.5536225688589065e-08 -5.533959898761046e-08 9.20765684012805e-06 0.00011051029955609095 8.43118878064491e-05
1760 -9.828572931516598e-08 1.0716275268669236e-07 2.1527382778422485e-08 0.00015696199461068426 -0.00017279558275226734 1.829600469474011e-05
918 3.335595106147554e-07 1.8360374195072825e-07 -1.7737364323092835e-07 1.7491595055833627e-05 0.0002604271118393959 2.89061188103275e-06
1394 3.2954329354969665e-07 -2.183442705382489e-07 -3.250805261272075e-07 1.5074848752970534e-05 1.5953431195458704e-05 -0.00020018076045640916
1422 1.821679955080991e-07 2.92051120805439e-07 7.284821644160106e-08 -3.751963052626281e-05 6.901482635067239e-05 -3.944023398371769e-05
800 2.877997666999622e-07 1.9138419260836841e-07 1.2093157032689544e-07 2.2482167792468633e-05 8.172977687749466e-05 2.2455443967535652e-05
1546 -3.409985652965319e-07 -1.5730844707165745e-07 -1.1939004863594215e-07 0.00022527562793528562 0.00010179258956362614 0.0001285438923961868
1425 -2.594753156185165e-09 -4.20170107861151e-09 1.4671706043964174e-07 -0.00012307357273416792 -3.176679577739461e-05 7.22653702664055e-05
1448 -3.915007468580373e-08 5.188602165414991e-08 1.9657483296582e-08 -6.951004076918812e-05 1.6621267114969148e-07 1.3948777411066681e-05
1293 -1.216903602910563e-07 -4.873058186979107e-08 3.682710579398978e-08 -0.0001304915033951993 0.0001024052305901082 -0.00012464516175245236
1186 1.6791706788888883e-07 -1.546967747937524e-07 -1.1503030411468406e-07 4.6720244991795466e-05 -0.00011617612200970028 0.00012597795058949746
932 3.3548027592097435e-07 7.203350966698618e-08 1.8947491607162456e-07 -3.833795600285813e-05 0.00016213195819848446 -7.769866133142751e-05
1008 4.6763881067149357e-07 -4.372018226630731e-08 1.009564911246165e-07 -5.2726929132147187e-05 0.00018187277438408254 4.183828611052288e-05
28 3.686718573843265e-07 4.3017870917410294e-08 1.7549906804389924e-07 7.261215437890044e-05 0.0001173973089093598 7.929439856402418e-05
1269 2.9623656520672283e-07 1.0686707059600335e-06 6.778551678299575e-08 -0.0006174744340474795 0.0002606106845468759 0.0006526752653552851
2189 4.438928095813286e-07 -3.88442551548014e-08 -2.7996827757838955e-07 -0.00010861075275021148 0.0001488333976673289 -0.00023729445332531848
1454 -1.255220513567395e-07 2.380683973542758e-07 5.294811738898235e-08 9.998477735516916e-05 -6.545502538867669e-05 -3.654065535748175e-05
1530 -2.6280609591067836e-08 1.1103382445769397e-07 -4.44927693172749e-08 7.834756922160568e-05 0.00012640624863218455 -5.468795213455768e-05
1223 1.0377676294971269e-07 8.108215501258182e-08 -9.577393510570394e-08 -0.00012299112247794118 -0.0001747942151677456 0.00032805386313893746
938 1.265116004271862e-07 2.034799571765032e-07 -1.7274299789851668e-07 3.148696503769499e-05 0.00012414653077581458 -5.0835061163917684e-05
2185 1.5519674496672617e-07 1.809914020477339e-07 -1.9883574555918518e-07 0.00018938632226095018 -2.145022817710011e-05 3.3391243239052367e-05
1048 1.691717064004624e-07 1.2539984154453718e-07 1.8118600448213294e-08 -4.976518936157123e-05 0.0001646254081400438 1.1668169309241913e-05
1656 1.6750825803612138e-07 4.890793383571625e-08 1.559123974717051e-07 -0.00010382637438303066 -0.00020726427419387664 -2.510479466343046e-05
1064 -3.591978151262616e-07 1.3456510684155368e-07 1.728887540741508e-07 0.00010217547225008076 -2.9783143687492313e-05 -0.00022551786399315442
1584 -1.9974681435902484e-08 -1.310786724683549e-07 4.5617107172927495e-08 -8.618696967186333e-05 7.193884365974629e-05 -4.793472314010866e-05
1777 1.0129845003014281e-07 -4.757232893470508e-07 -1.493074603628483e-07 0.00018134744703027242 9.477069265949362e-05 -0.00014850973160172013
1598 4.505006952275061e-07 -3.812402289282993e-07 1.871151682479484e-07 0.0001537828491195006 -8.545055972216581e-05 -4.7024909261266725e-05
1109 5.217500577605639e-07 -1.405511836994014e-07 3.482379202158609e-07 6.300799956980878e-05 5.002488764261537e-05 -3.4386910568951484e-05
2141 4.594786546242085e-07 1.8374160269127231e-07 -1.9286601075469713e-07 0.00011430331834081887 1.2627382330085927e-05 0.0001953426362411259
1009 2.8555405298784787e-08 1.5797593281097796e-07 -2.3756813944360577e-07 1.6389561915909577e-05 -0.0001973285611344513 0.0004762631488962251
2070 8.869008645451508e-08 5.181311792502651e-07 -8.483184606932177e-08 -5.2633237351361244e-06 2.5788667264334835e-05 -0.00027081252237103564
2012 3.007618587582058e-07 -5.011850065185976e-08 1.722083578995234e-07 -5.1270523082161104e-05 -0.00021032857218312135 -0.0002600883294325628
1549 -4.560245238102701e-08 1.294152267306144e-07 -1.0822800791624308e-07 8.830979446159628e-05 0.00014487779882278533 -0.0004410776583280151
862 1.6826913898673145e-07 1.0562994764904025e-07 9.551376287550595e-08 3.610220990381944e-05 -2.431908025000784e-05 -0.00018764446999792626
1333 1.7772436948124576e-07 1.3549870436367434e-07 1.0556855579211711e-07 -2.7042746874594996e-05 4.7633883879189054e-05 -1.5417749441062555e-05
2019 1.97449111943831e-07 -6.62670000256781e-09 -1.5533423528217236e-07 6.797955230890089e-05 4.377805259333148e-05 -4.9184110302731306e-05
2187 -5.021726223625468e-07 -4.387639929109308e-08 1.292829657805145e-07 2.9243255270857205e-05 0.00012894946263837444 -0.00010684618701333312
1581 2.0954245143563292e-08 5.352078318358093e-07 -4.948190329239858e-08 -0.00013691713607259386 6.337907940595504e-05 -0.00024156050258637558
1133 -2.1176749901161703e-07 2.672754611714308e-07 1.7213392578401263e-07 -8.380939014010463e-05 -0.00010415596672351485 0.00019654891539652044
658 -1.1394108650927993e-07 -4.000365149644821e-08 -3.717996451001424e-08 -4.70922919712366e-05 0.00024003048222054604 -0.00038735286632342016
534 3.501242134384194e-07 -2.962125603342647e-07 6.282578110566185e-09 4.276191386988281e-05 0.00011863454617997698 -0.00015877286621917934
988 3.8322367727490175e-07 -7.869568816688181e-08 1.351642069676831e-07 0.00010421332224569368 -0.000278575803008559 0.0005247345801419565
1308 5.189529386339912e-07 -1.238640381301562e-07 2.3524707478248755e-07 -7.178990112060877e-05 0.00021217655268431247 -0.00043597369832186554
1620 5.960969892772116e-07 7.07753903479977e-08 2.2158170074124777e-07 -7.510256954720406e-05 -7.653146865075127e-06 -0.00024246696297658854
1373 3.870674856250327e-07 -2.901226375351108e-07 1.989001810750408e-07 -0.00030304720888776914 0.00018422045092773642 0.0001476299644079389
1126 4.436205455766199e-07 1.657105409727819e-07 5.426056806470818e-08 -1.7979112190148415e-05 1.7902484477565917e-05 -0.00023118053215908722
1814 -1.5018310410376458e-07 2.6771795235009868e-08 4.222706956222072e-09 0.0001900942268688877 3.768135768794322e-05 -0.00036450962945484464
1079 -8.51427186819445e-07 9.37234199980492e-07 5.942509332833539e-07 -0.0005463974313325988 -0.000774072563431071 -9.782721804845986e-05
886 3.1707301904712485e-07 1.7936600659745306e-07 1.3169548705325511e-07 0.00019722595370268053 7.519322850832474e-05 0.00018677698429491078
1617 6.103591931650803e-07 -4.4029346458887483e-07 2.0326629848509345e-07 0.00020533818023881975 0.0002054822987863028 5.0645616656037784e-05
1635 1.4080655669194688e-07 -1.834670039614184e-08 8.770297707364872e-08 6.101019820632732e-05 6.527742872202798e-06 0.00019254604667260386
1072 2.058456029197946e-07 1.4971796292545328e-07 1.2954024613243841e-08 -3.4780148797718486e-05 -7.24263599731253e-05 -0.00013516981182744935
1988 -2.054885989482617e-08 1.2042110629998514e-07 -1.1631268082696614e-07 1.066096945508851e-05 3.76160715584053e-05 0.0001275601034857081
921 -8.976130209607556e-08 6.171558936678608e-07 1.0858587903945497e-08 -0.000594284708389707 -0.00010043941009146321 -0.0003231292333900775
1226 -1.3076312330590255e-07 1.9759995621462046e-07 1.2382408215306837e-07 5.4306148086090805e-05 -7.829125830910758e-05 0.00022868826698035913
1076 2.5074523435184453e-07 -1.507166700331188e-07 -2.064811739444523e-07 0.00010872958142106644 -7.298275298119466e-05 0.00035516502348437813
2182 -1.0190959673481693e-07 -4.6454833181245563e-07 -9.554388528500916e-08 -8.696204311171987e-06 3.85212135791439e-05 -6.769511007358586e-05
1472 6.254013640103595e-07 -4.5128024422535226e-07 -6.027349818488568e-07 0.0005378516447208406 2.629307241016347e-05 0.0001256586062516524
896 3.549448514717871e-07 2.8296418509160474e-07 -1.5645961422366783e-07 0.00026479271755358336 -4.769775529402607e-05 0.00019156930220708859
1845 -1.8732748257386434e-07 9.114073988175878e-08 4.977471249726927e-08 0.0002138727148432873 -0.0003107801777231801 0.0001655269518804165
1914 -8.10075389032673e-08 4.4244674222423867e-07 3.664075121105909e-08 -0.00011952016705865114 -5.9634072071457857e-05 0.00015679608873261734
853 -3.69238597589946e-07 8.243813811287231e-08 -3.451277068838236e-07 -0.00034325737503130047 6.027767606745972e-05 0.0003902269227592024
1705 -1.4280072818598623e-07 1.772724920747619e-08 5.522263458312517e-08 -0.000298316374378699 0.0001693349884454972 -0.00014721082247421942
899 -1.2271933277470987e-07 -1.2483643458415067e-07 1.4861962894394007e-07 0.0001364975049690107 -0.0001541800912602436 2.2279855710017562e-05
1197 3.156905234333174e-07 -2.2477829193301653e-07 2.4045117242036475e-07 5.763125919986725e-05 1.3083253346320229e-05 0.00018476952484915865
1601 1.5389231997746356e-07 -4.588004579555463e-08 6.001525501101751e-08 -3.441299196838081e-05 4.992899847286665e-05 -2.2718408601125196e-05
612 1.3930360195338401e-06 1.2250090597239329e-07 7.258475769266714e-08 0.00024231118773289042 0.0008077337255419803 0.0005333513551796178
1737 2.2783186561603797e-07 1.3940110481827573e-07 1.8593139340075223e-08 7.563110560573231e-05 0.00021138617521534656 3.4529507345804834e-05
1655 1.6889611723488772e-07 4.164612925351761e-08 -1.1516246413287463e-07 -4.966494465607262e-05 8.980972989506701e-05 -3.913411779919856e-05
950 -2.5562141089934276e-09 5.004104232073038e-07 -1.1858747811628144e-07 5.510933336097099e-05 3.8761561298839585e-05 0.00021317350889905637
1585 -5.885848045603023e-09 4.61744568846632e-07 -1.8930752602180484e-07 0.00015645775915428523 0.00011598108773701584 -0.00022946143485747442
585 9.971463801918139e-08 -2.61317580622087e-07 -4.344986277695619e-07 -0.0003286360414707163 0.00016283965626325445 -0.00023506157145786744
157 -1.7344002500018556e-07 -4.3284285965043395e-07 -2.1263415591792552e-08 -0.00011813284012440437 0.00022454039073101041 0.0002994982278552529
1208 4.3769094146944156e-07 -1.1337490685668295e-07 -3.274632685372698e-07 0.0001768094921213181 -0.00019483761146695146 -7.631359843857715e-05
1156 1.4383464458957124e-07 2.2760406320169815e-07 -9.604623381015106e-08 0.00017020694832378802 9.637444641221616e-05 0.00013375733214877894
935 5.418704306658724e-08 9.808255694935307e-10 5.650746803068371e-08 -0.00037544619238586563 8.630792124828327e-07 -0.00023971471756575584
879 8.498101188627138e-08 1.0497869504928852e-07 2.402385705062009e-07 -0.00015797208781946002 1.9355184709608537e-05 0.0002547744516228747
1050 1.2888700224759045e-07 9.439031869613776e-08 -1.1467336403679016e-07 -1.3779944528597804e-05 1.810794710951089e-05 -0.00018235679286729764
1140 2.3100374017134437e-07 -1.8014950297929013e-07 -2.7436706390863816e-07 0.00053294908654213 -0.00010838571461971898 0.00015803470435601583
1415 3.336910117470885e-07 -2.0842827885482866e-07 1.125343584148515e-07 -0.00028098497452698067 3.2698718652998755e-05 -0.0001413687404803715
2104 4.167386168456451e-07 -2.8644059329764303e-07 1.7212910017638744e-08 5.292408833762219e-05 1.2725260237767448e-05 -2.765940509869402e-05
1692 1.224173258831586e-07 2.220861672067116e-07 9.177015052437893e-08 -1.3740516896491146e-05 -3.6867278778883514e-05 -2.5531812271853427e-05
1627 1.9104919968232726e-08 8.188583739674213e-08 -7.913017836990214e-08 -3.8008152602256135e-05 -0.00010082417330791856 -6.276110037821929e-05
834 1.7736065986911105e-09 5.02437460873915e-07 1.249733209954453e-07 -0.0001579544987731912 -2.9898314583540065e-05 0.00021744519613161383
1893 -2.0427853076873564e-07 1.8872208277523673e-07 2.6339192703909775e-07 0.00012499155124571707 0.00041723461410656074 0.00013709079990521537
1544 1.1379764221603484e-07 5.097501484855558e-08 -2.4101728944461335e-07 0.0002616333526896331 2.1328006300185674e-05 5.118369902502666e-05
2062 -2.287442878326759e-07 -2.3885288021814917e-07 -1.7380358039660883e-07 0.0001257944523643712 -0.00022600637383330947 0.0004166494192147086
1726 -8.915478752434434e-07 -2.2193594560067273e-06 8.19199236893683e-07 0.0011168663236493397 5.989607632579245e-05 0.0013454711382152344
984 -1.261825685092891e-07 1.795624895251611e-07 -1.4229408263462326e-07 -3.1383436759957906e-05 8.173134271440663e-05 0.0001935705829097587
951 3.2949173849608622e-09 3.059505498195394e-07 5.1418450162093124e-08 -1.4879290144467747e-05 -0.00020045785794352462 -7.64495580027748e-05
1876 1.4803897250275095e-07 4.3936658758143346e-08 -2.987634441922342e-08 0.00022158469150506654 -0.00019182337943700169 -1.427952004709148e-05
903 2.138226840705788e-07 4.261571638615784e-08 1.8709517690517988e-07 0.00026513095587516535 4.4843928250038565e-05 -3.993072713362255e-05
1634 2.5657401372939693e-07 -2.5472813116380437e-07 3.549348755183769e-07 8.407483012388982e-05 0.00011359126548798163 4.9839537933971674e-05
2090 3.429217965981762e-07 -3.2837487398034504e-07 2.951978036483975e-07 0.00029120570020975563 -0.000267804560089535 -0.00011595037690621847
1609 3.9068759120992527e-07 -3.716911594018008e-07 4.5597120098314573e-07 -6.891065420895826e-05 0.00017617064169564575 8.751252754896413e-05
1506 2.656442139804586e-07 -1.597466590722522e-07 2.3012881397024002e-07 2.5570088377564335e-05 -3.1318017180440393e-05 9.957518658349878e-05
1013 1.9698831671428393e-07 -3.755327275304949e-08 3.510476179746018e-08 9.494632429839445e-05 3.802702249531891e-05 0.00013058525329218333
1976 2.8669997531097826e-07 4.7503819207986556e-08 1.5452860197813877e-07 4.235430393153367e-05 -1.1359392350354128e-05 -0.00012546479058817396
1130 1.9730506587738206e-07 -2.966917141116245e-08 -2.684681278681805e-09 1.4842146962256424e-05 6.598545874208204e-05 0.00016613347764594583
1981 9.434226422896065e-08 1.6682912921372654e-07 -8.411269488652915e-09 -7.682610370646204e-05 -7.209423670935439e-05 -9.692571743475896e-05
1359 4.7159848802706666e-07 9.734056452272782e-08 -1.1253046284511821e-07 0.00020597046716423339 3.95649222122451e-05 0.00011650502203518882
1486 -3.5674456814345213e-07 -3.169638024217052e-07 2.70724235234447e-07 0.00010307842577984574 0.00042064633202625496 0.0003102558293925233
1485 3.1884403324871876e-07 -2.5122580940219284e-07 -1.6037370480947912e-07 -0.00022544983129843036 -0.0002920438407532312 -8.79717039339362e-05
1453 -7.276098935690224e-07 6.704617493671369e-08 3.4926824315843845e-08 0.00017997540754531084 -2.788926279484414e-05 -0.0002689288927815804
46 -7.176336970074084e-07 -5.291322075279138e-07 -2.0886638408707136e-07 -1.5789616995836076e-05 -5.9901025872648555e-05 0.00015845960060730375
912 1.8268834289811597e-07 2.3475175282406894e-07 -1.3914705792602233e-07 -7.922515673457432e-05 0.000224246631140203 -7.447774534825542e-05
1650 2.2889532594750037e-07 1.699701534741921e-08 1.134074817417507e-07 -0.0001284173988303039 -0.00040783825805642713 -0.00013762687851442854
1782 3.8194581046457793e-07 -5.398959500914638e-07 7.943269021425583e-07 0.0006341101625412925 0.00018919914129025012 -8.992567183444123e-06
2048 3.25535864035852e-07 1.8047481472042116e-07 1.2837526143393443e-07 4.9520132771785794e-05 0.00026839925657804245 -7.569911926992274e-05
2079 1.2790064356972e-07 -4.984880988527539e-07 -1.7830022803789022e-08 -0.0003322078770221772 0.00011363184458750122 6.647387299605107e-05
1488 2.5344803905697055e-07 -4.880053643687757e-07 1.1652712017538736e-07 -0.0004879030001203967 -0.0005141880360697142 1.4007189862284821e-05
1745 4.435795728482053e-07 -2.37593548601229e-07 8.733333994752866e-08 -0.00036720156846732177 0.00047370226056414177 8.970160483252337e-05
856 -1.1433944724449915e-07 5.786800844082588e-08 3.4154293637051093e-07 0.00015809076314799293 0.0003844074669339431 0.000602206802933051
1498 3.0748851245482174e-08 3.5345024256131683e-07 -1.294885786798757e-07 -0.00023430622353112527 -7.5792878343655635e-06 -0.00024448936079603256
998 2.850277960507817e-07 1.3263032195981733e-07 2.8028338018813713e-07 0.0002841357180006375 -9.587662497456459e-05 8.783708215774264e-06
1029 4.01083661867497e-07 -3.683686111812327e-07 4.5512542021354334e-07 -0.0004329914133700237 6.299436665614227e-05 0.00010232583320746665
1641 2.932741143162473e-09 1.436695004766275e-07 5.260604031115676e-08 -0.00013802845307877635 -3.113956510277773e-05 -8.472974410809046e-05
2193 -3.128707584423882e-07 2.5182028373972987e-07 -4.665609199213287e-07 -0.00044726213660609045 0.00012096150132917584 6.633053246104968e-05
1662 -4.126764034606352e-07 1.3017469057759198e-07 -9.131092204955201e-08 -1.2937853147717442e-05 -5.008988313556445e-05 -0.00023151939071791794
1772 -2.3927829220563446e-07 3.2297440585790274e-07 6.737089248869262e-08 -0.00021828337076275822 -7.248986224572522e-05 4.840884355067262e-05
1890 -1.1529105858974087e-07 3.031432716951914e-07 1.5698779762820832e-08 -0.000528576552467423 -3.1646983370617766e-05 -4.196774512660089e-05
1858 2.610442174284614e-07 3.625795130454606e-07 1.5759356555180553e-07 -3.188616431422686e-06 0.0002888016451399077 0.00021470075611334009
1645 3.7270102296026383e-07 -3.710870904504106e-07 7.963574137302349e-08 0.0002816731137276559 0.00036317449126751654 -0.00012783371000908302
2167 2.7801173132230347e-07 -5.43203902252592e-07 -3.6716179026352047e-07 1.10373138372277e-05 0.00011968509791957967 0.00012644371220809126
1363 -1.4416013313039553e-07 -7.172723304417447e-07 -6.662829691485393e-07 -0.00020750574096750448 9.964369079599833e-05 1.0091129590094862e-05
1419 -5.031446859445259e-07 -3.29835683561906e-07 -4.8793023441120746e-08 0.0004481434918174554 -0.0001735864062914355 0.00036289001162013025
1248 6.19104638658257e-08 -4.568462181029676e-07 -2.693979059912414e-07 1.0402531708279364e-05 -0.00011881676357165649 -1.57155415439994e-05
1850 8.042700461429896e-08 -1.2527091364592995e-07 -7.172403172426215e-07 0.00013245720132859355 0.00023735411726334905 0.00014018590741108914
983 -1.0283371351968527e-07 4.99311778840002e-07 -7.049066743206786e-07 -0.0006592944985222781 -0.00036495225456098713 -0.00019694007435456512
2042 7.927810363586016e-09 2.400325403593482e-07 -2.3641796650616583e-08 -1.5694907775193427e-05 0.0001646610417593383 9.523762729108135e-05
2050 -1.4999970601585004e-07 1.0552986532374398e-07 -3.866369307803934e-08 -0.0002606923550439355 -0.0001630634434985826 9.381742257009999e-05
2074 -2.6615927062234787e-07 -2.04627561524643e-07 -1.2369213274907499e-07 0.00012844924257559122 0.00014604460848127281 -0.00027900698564570724
794 -1.034012664512784e-07 -1.9724689844858232e-07 -1.1370386455775933e-07 6.942988008193475e-05 -7.144462494606243e-05 0.00016324795252671475
2194 -1.5763414399989633e-07 9.014519126697166e-08 3.308278537814194e-08 6.734523799586035e-05 8.559878418692801e-06 5.168407971211708e-05
1913 3.6271485116793404e-07 -6.270633095729619e-08 -1.0725388556363185e-07 -0.00010612514578723949 -0.00012963341988023828 0.0001476321571385516
91 1.7898505315576864e-07 -5.055512875702012e-07 6.055722614920519e-08 2.2544512138498137e-05 -1.0898800490056375e-05 -0.0005111970177154399
1124 -4.292369351610418e-08 -5.391228250281638e-07 -2.2085348826151565e-07 -5.313637218040124e-05 -0.00017483900416668881 4.5800219275746125e-06
1262 7.256287235775271e-08 8.387099041286093e-08 -8.531006712404966e-07 0.00034208039815174115 0.0006481157441744965 4.975928946877486e-05
1967 -1.540374952704932e-07 6.271027983108693e-07 1.5862253157323603e-07 9.971038409914108e-05 -0.0005304174085454877 0.0006106950777054277
1971 6.237377456307837e-07 -7.690416121947213e-07 2.809961493710163e-07 0.00033258533269544643 -0.00021570398467422587 -0.0004595911180051594
1966 6.571501853436969e-07 -3.8233863754908053e-07 3.765818101554453e-07 0.00012408922150579257 0.0005120555112598238 0.0003159100731791106
1625 8.939532077309782e-07 4.0290249099558317e-07 -3.1493886610782734e-08 -0.0007891272302398326 0.0013083722570552026 2.8734775417995333e-05
2081 -1.4137668608839367e-07 -3.816628858562246e-07 -3.7975352793759605e-07 0.00022913379540825994 7.13047373711341e-05 -0.0001609284973292001
803 -5.83729814117403e-07 -4.679499554159333e-07 -3.5207549373060993e-07 -0.0002891554123869547 -0.0002626258252344816 -0.00012153853088683597
1922 -9.926352915743017e-08 -5.252306869329048e-07 -4.795343667859691e-08 -0.000432556960522359 0.0002809608779724738 2.6308792189966552e-05
2049 3.741502858397666e-08 9.582470453180495e-08 -4.241328267009124e-07 0.00010814197686709399 0.0001100763518067417 0.0002635161421870525
1311 6.997513732910636e-08 1.298924250800395e-08 3.9479173872185496e-08 0.00033367577187731664 0.0001870298931379961 -0.00018212808934063533
1139 -3.498382721334543e-08 4.902231731292968e-07 1.1222764716701814e-07 -0.0005186141002588415 0.0002467793017389389 -0.000332990995585637
2116 3.482739291562034e-08 2.5431819122171137e-07 1.6637899972725672e-07 0.00010239648695100106 -0.0002100574906988563 -6.022899278028436e-05
1198 -8.191799500537638e-07 -5.18655721850752e-08 -8.548435227070514e-08 2.8728152572055935e-06 0.0009780620504705674 0.0010668656150500564
881 -5.358279749468005e-07 -6.311365686980401e-07 5.224319521755145e-07 -0.0005765176237134471 -0.000203847490540714 -0.0006565184496383957
308 4.200587748761934e-09 4.245119012171885e-08 -2.258053040784486e-07 9.084620026478303e-05 -0.00019967625319394265 -0.00014218391018884724
1842 3.837948194759851e-07 -3.4126729552867193e-07 -1.1183173910838095e-07 -0.0001236479997682481 0.0001774945359666777 -0.0005307288339956108
2168 7.736092053185537e-07 1.7557085958410378e-07 1.0289865455428492e-07 0.00016500216927392095 -3.3797826635264825e-05 0.00046830197976789996
1962 9.42457323285151e-07 3.373060013043125e-07 4.401956498872047e-07 -0.00047426136537707323 -0.00017001039242343802 -0.0007094132404336591
1956 1.5119171838063386e-06 -8.171826368560581e-07 1.107899666829659e-06 0.00021778182344701154 0.000301262343800778 0.0001772476703178956
1883 1.085769483881995e-06 5.257771063891334e-07 1.0800081026408086e-06 4.106268464007507e-05 0.00023952602534562493 4.414597065258333e-05
2108 7.150980997527399e-07 2.274919033351976e-07 -4.2865550584701296e-07 -0.000223291535934041 7.014761612089222e-05 -0.00029721573931872357
1618 7.150670606404279e-07 -3.4481982367894787e-07 -9.714197332633283e-08 -0.00017455387344151755 5.6441302815764946e-05 -0.0008469486835366457
1665 2.3630387107415027e-07 -3.4331993163019515e-07 1.1106789227708343e-07 0.0002730604102798657 -0.0007186919087751621 2.2934009073489333e-05
1375 -1.197669847984845e-07 2.3606820204548092e-07 -1.2595796603581153e-07 1.8474544315513093e-05 -5.3598865151295064e-05 0.00038507262841814383
2089 -2.95095851744736e-08 4.008560013809916e-07 -5.365000121898383e-07 0.00015728203382558243 0.00033558329216512296 0.00036571526882038595
1749 7.45872774595567e-08 1.33630119239298e-07 -2.3810869761623806e-07 0.0001720443672227545 -0.00012419338811201996 0.0002612254426536306
1056 -1.2169444541702347e-07 -2.7443989647897533e-07 -7.291101662254357e-08 5.0242516184216706e-05 -0.00011768505137088742 4.807504011937501e-05
1947 -1.5257870114361907e-07 -2.029174283278597e-07 2.856912819538477e-07 0.0004554768805755075 -3.350021950355319e-05 -0.0010903909190490206
1476 -9.32985195236829e-09 -1.0043796501576815e-06 4.5642233896677304e-07 0.0004045655542721407 6.662674011666122e-05 0.00044935138381055307
1098 -7.542576949193735e-08 2.5976279061360607e-07 -1.5907707105605151e-07 7.342976260145829e-05 0.00019587388289484306 0.00030472627686272704
2008 -7.978103940476728e-07 1.3172447775507175e-07 -5.888349996711995e-07 -7.227402767390502e-05 0.0001921972932643706 0.0004031543356040372
1809 -3.8410644839848193e-07 9.924420953934906e-07 9.62443846385746e-08 -0.0003869266525058129 -0.0005968480660157068 0.00013571124060577977
1439 -2.343367096514771e-06 1.903686512123012e-08 -1.1264806807756273e-07 -7.775193883748415e-05 0.00012231405539727655 -0.0008385074497698541
1811 1.523990626988381e-07 2.3274885251471735e-08 2.8864947909486763e-07 -0.00019090904924971033 0.00022845972740270846 0.0004365702256195735
956 2.177671592293624e-07 1.035100800391218e-07 -1.769275396438171e-07 -0.00020360894027964067 1.550601638986641e-05 5.13273760577129e-05
2170 5.784992970329535e-07 2.2210851294157834e-07 4.823788994155487e-07 -0.00042443205248761097 -5.467291832722542e-05 0.00015324588318160878
1600 1.1409407411071249e-08 -4.016799675300087e-07 -1.8140022566418187e-07 0.00033400464290218044 0.000498714682712665 -0.00024071562657773836
897 4.497519701579259e-08 2.560390082826516e-07 8.228764631573098e-08 0.00012975774361208663 2.7227305096368558e-05 0.00033536657823272166
1732 -1.4958943965905406e-07 4.587613702105513e-07 -1.8972877008860608e-08 -0.000286736659005565 4.51499129855944e-05 -0.0002478454895716808
1694 -2.2170584113395026e-07 -4.859861640904943e-07 4.5871449990784967e-07 0.0005208894323696514 -0.0003630032544289659 -0.0001169173060892768
1902 1.6302105682373439e-07 -8.645005627502961e-07 1.7386518786340323e-07 -0.00013395258064613331 0.00025633953490660416 0.0001381414927015662
1941 1.1295669920305242e-07 -3.7110285393508356e-07 1.5516780760106513e-07 -0.00020646229194213163 -0.0002287669626353495 -7.674913602139115e-05
1622 -3.3587028836821305e-07 7.229819809753463e-08 1.1216810030143844e-07 9.920110145085285e-05 -0.0003256164085597313 -0.0002021625024124003
1335 -9.733445777892624e-08 3.6833080507555245e-07 -2.0637536892756175e-07 0.0003016161799103339 -5.0284429016064964e-05 -0.00036301965190144116
2143 -2.750650031730455e-08 -3.3523131027804524e-07 6.301928489743344e-09 -0.00011137807023039615 0.0003232697254851066 -0.000452579338096809
2034 -8.244338279495022e-07 -2.2942842386967505e-07 6.422711864008501e-07 8.15005810687142e-05 9.674128681730312e-05 0.00013583142915285238
1408 -4.5334117497298905e-07 4.855363029464441e-07 -1.0829783297402384e-08 0.00019931097109861522 7.282047584999898e-05 -0.00012745886768822915
1792 2.2903612875097414e-07 9.198957161783068e-07 -1.9341290987492458e-08 0.00012673338130536488 -0.00015742070547480682 -0.0003506928416962147
2011 2.0136981358480824e-07 2.2667702132532048e-07 -2.4350554299790817e-07 0.0002636944657460785 7.908168741249213e-05 -0.0003179317868119824
1709 2.497556862346817e-07 -2.6472047171194652e-08 -1.822779852479757e-07 -0.0001726830821638055 -4.242761148568005e-05 9.594862044262715e-05
1955 7.311653409469073e-07 5.898025779029649e-07 7.45090480058763e-08 0.00012351208146157828 -4.6641950127551684e-05 0.00031370384599146474
2134 4.78334797955196e-07 -2.326872127790783e-07 2.1764093094359658e-07 -9.82436470371561e-06 0.0003383242736052273 -0.0001470965858931602
1196 4.037963320043805e-07 -1.905637511020302e-07 -1.421059984339634e-07 0.0002961979095808482 -4.3019152263177526e-05 -0.0004667926562435627
1762 4.873975769294481e-07 -1.603536754029736e-07 2.239098703348399e-07 0.0005510769118720435 -0.00010420637253556454 0.0006740660498875859
1909 4.2397628984934725e-07 -1.3061540740643535e-06 4.4229284117391165e-07 -0.00012596795382819207 -0.00013449540886944356 0.00021570144216326716
1649 -4.0146455903357e-07 1.6741762966123947e-07 2.720989041027578e-08 6.086778233531908e-05 0.00017994243742364146 0.0002425489739399979
1874 4.6937374722637714e-07 3.911240958962766e-07 -7.945733084077696e-08 -0.00020745547722248207 8.788683710863615e-06 0.0002191941868622403
1102 1.0956926879076393e-07 -3.9697164325962065e-07 -3.1410931032457883e-07 7.657744537422579e-05 0.00025602101879836927 -9.51143673172244e-05
986 1.0179393091914002e-06 3.8536784639886886e-07 2.3586806068952498e-07 -3.165400884725506e-05 0.00035699700850715165 0.00011860356677614302
1246 -4.405260973775465e-07 3.4565522111093264e-07 1.045800179505272e-07 8.680048487080129e-05 -0.0009199987180198863 -0.00033846658565392536
1077 -9.796803184411774e-08 1.237962569983998e-06 2.3739328767990297e-07 -0.0005269613344624687 -0.00014125511952718187 -0.0001780483508474095
2071 4.1165439055191947e-07 8.674022015525195e-07 3.540966185945197e-07 -0.0001398507574150095 6.021042782589614e-05 0.00027831782986407263
895 2.6630195880178723e-08 2.5257576532473945e-07 2.977867047940838e-07 0.00024725018744230876 -8.133616223810474e-05 -0.00034496782208216385
1995 -3.0762499534211e-09 3.7846703675509247e-07 2.714224724369282e-07 0.00010122867081041733 -0.00026497615922904514 0.0003482252104998603
1812 2.778625644168507e-07 -2.0323699303715736e-07 3.838389056910097e-08 0.00023243448986892944 0.00019151920439093616 -0.00010217228094850109
1984 -2.3907385427141354e-07 7.410370690712908e-07 -1.730472354042135e-07 -0.00021518009016958378 0.00023852571410056442 1.704875252576444e-05
2072 4.1189580800363606e-07 -3.88489382019602e-08 1.9084758424156235e-07 0.0002793189852182344 -7.763448698041684e-05 0.0002989242096906609
1866 -1.223931270931401e-06 -1.213578136944531e-06 -7.698432348031576e-07 -0.0010281334737896064 0.0002659725883584157 -0.000141926307817149
2053 1.7836471995832156e-06 -1.1147576992296851e-06 2.9897163127203794e-07 -9.683239800313317e-05 -0.000703615776345269 -0.0005229860676996154
1623 2.5286985179302883e-07 -6.199734435246649e-07 1.0398717053307203e-07 2.7910477221789062e-05 0.00025732795926281015 -0.00014071410552833028
2154 3.240455757103969e-07 -5.915621248256932e-07 1.1180858907866626e-07 -9.98466737977922e-05 -8.312184917168913e-05 5.564194604622355e-05
2118 1.9032669431559784e-07 -3.912606826360151e-07 3.631491301960239e-07 0.0003579273986912721 9.320725499651407e-05 2.958130997020155e-05
1700 -5.677233228571576e-07 7.653960586326363e-08 -2.5742405456508673e-10 -0.0002566863204312739 -0.00024778619434189 -0.0002209828765052878
1894 -1.618952872306268e-06 -9.501067530454657e-07 5.428388977954897e-07 0.0005474982806341861 7.166932788321298e-05 -0.00016231249648175646
1875 8.938124243214517e-07 6.692289978696985e-07 1.1338233637598641e-06 0.0001519995742187146 -8.462733205722292e-06 -0.000638185555850778
1290 5.330852629729486e-08 6.870851717388164e-07 3.038962896450799e-07 -0.00017860314206134944 -0.0003023655215673761 -8.053496232214955e-05
1887 3.602330872775854e-07 7.263113981024811e-07 4.228403945929489e-07 -0.0003409968639271882 7.411569415094415e-06 6.805068252479687e-05
2128 3.880171841847505e-07 7.535822018676172e-07 4.330915748023507e-07 0.00020360825090469484 -0.00013068216981464704 -0.0001940958642258049
2044 4.4030944764142545e-07 6.154119707690777e-07 4.142985397004456e-07 0.00038737727238642613 0.000131986717960412 -0.0005921687101044488
2157 4.2728338299774905e-07 1.2260299278024521e-06 1.729244912889163e-07 -0.00013968184481789387 0.0001605911278846686 0.0006061322767786606
1111 3.462937327008247e-07 -1.7846341824523743e-07 1.414855538125955e-07 8.131621716364647e-05 0.00023868455394348558 0.00032505593268130907
1707 3.1030945366798956e-07 8.434084114711122e-08 -3.487275158100439e-08 6.094149620669442e-05 -0.00022798454303818728 -0.000256603310542545
1910 2.5510464330857205e-07 1.9438223413804623e-07 -9.748560850014357e-07 -0.0004717627096945674 0.0009988832254654724 -0.00015838042552684814
1704 1.3256340827281369e-06 -1.4582539848121759e-06 -6.280432907240062e-07 4.633907963886918e-05 0.00020925183527390666 0.0006398623742168344
1690 4.908597756758059e-07 -5.848213549159081e-07 9.666633182832704e-07 -0.0003481486352032187 -0.0006024171509591889 0.0009070869176491416
942 5.612360120829647e-07 -5.17539000788702e-07 9.72902965206995e-08 -9.552594108131599e-05 6.443902236349988e-05 0.00017889847348248172
2142 -5.470095628446918e-08 -4.82163905206985e-07 3.334829447805817e-07 0.00012273541567658355 -0.00041640437410208264 0.00022547276169536615
2077 1.9462823827973287e-07 -3.10235240318117e-07 8.821706979972865e-08 -0.00023809899662998298 0.00031009772484975916 -0.00014690085400321915
1957 5.8453017796102856e-09 -4.0036555754419194e-07 3.5119461605341117e-07 0.00011618984383414838 -9.42858934345086e-05 -0.0002409386453201545
491 1.5421891621608072e-07 2.577404113028236e-07 8.36126852289499e-07 2.5274715306893615e-05 -0.00011818601267537022 0.0007762613810169928
974 2.5417536839419097e-07 1.4722419289483609e-06 -2.1513893173141683e-07 -7.467669028914808e-05 0.00019506911226344447 -0.00010795436434121154
1027 -3.778303297524687e-07 5.020914808094782e-07 -5.399008781026811e-07 0.00016220337918924837 -0.00018358202968544456 0.0003511211771710302
1298 -1.9511124786195365e-07 -1.791992383107551e-07 -3.430653002476137e-07 0.00015380926304637142 -3.060082098414178e-05 0.0004235326342198764
530 5.275126616152653e-07 4.3657659858971625e-07 2.853217631006234e-09 -0.0002185861153157109 4.118123965431416e-06 8.489311174229675e-05
1801 1.0572955765419972e-06 2.7710454887620184e-07 3.016123040792952e-07 0.00018742611269018678 2.6024522696889572e-05 -9.45617389782741e-05
927 1.2149363198269438e-06 3.89564981181492e-07 1.775187841081423e-08 -0.0005152613385103274 0.0004175477436099842 0.00014822491408519414
1961 7.432636123600644e-07 1.4518227659810953e-07 2.0273153689986486e-07 0.0001260107170480107 -0.0001297699266268073 -0.00033858178268065685
1642 7.082779264133591e-07 1.1560984237519268e-08 1.607155326808187e-07 -0.00022784331404144954 9.333099541094379e-05 0.00015384844099130106
1207 5.569807908507636e-07 -9.498404036179997e-08 -3.7556873979121496e-07 -0.0005877051227840609 6.051493808832743e-05 -4.384068734870834e-05
1877 7.391286335695552e-07 -1.8132893144898898e-06 1.3570214763756152e-07 0.0003594793125507756 -0.00028653669323373544 -0.0005817027320764747
870 2.8531683704828197e-07 -8.302618672673607e-07 3.498510444290165e-07 0.00012668702419569403 6.503724118187956e-05 -0.0003194513677381385
2175 1.5653505818617415e-07 -1.3759799941751435e-07 5.797266595158798e-08 -0.0001526028441908229 -0.00011343113582027448 8.668154848205119e-05
1573 1.8653654439927745e-07 -2.492423086522766e-07 -1.9460695076540472e-07 -0.000167456513349721 0.00016110261119036448 -9.96152681361358e-05
1991 9.35621828807583e-07 -2.8083591741736244e-07 -4.646717249676517e-07 0.00024319263646517165 -2.5363246471959427e-05 0.00025747041161726836
2138 1.8406443025825346e-07 -2.1305589843154735e-07 -2.252505691024437e-07 2.899894902050416e-05 -1.5436048662571127e-05 -3.165773426848988e-05
1589 -7.01704391916615e-08 -2.6473418129140124e-07 8.729326535981856e-08 -0.00013692517105995234 -4.307020932829698e-05 0.00015361017048585911
352 -2.822882788053606e-07 1.3738182365940832e-06 -5.672033980080295e-07 -0.0001691984849279992 3.9986223299504456e-05 0.0010085485028862122
1312 -3.135512315670238e-07 -5.733850185660438e-07 -3.9927036800630617e-07 -0.0005114371476326614 -0.0011728145485691236 1.3126513941086214e-05
1491 4.725211859793704e-07 -1.13339972201151e-08 -8.67799756631669e-08 0.00046347474085869065 -0.00020567880309320442 -0.0001876310401981391
1954 1.203956138861941e-06 2.71802604799139e-07 -1.7526928929742484e-07 -2.0222712346447702e-05 -3.486419494628355e-05 1.0768082503402984e-05
1820 9.903695110441272e-07 4.5463783611260666e-07 1.2237431520282648e-08 -0.00022016682036077293 -7.050482184840089e-06 0.0001588208343690181
1608 6.811128647416403e-07 1.7725050029394983e-07 -2.996351261365466e-07 0.00015789528881918492 -0.0013218449836955085 4.885750110891701e-06
2055 1.0262039469872037e-06 2.8172889273076865e-07 -1.239831057468761e-07 0.00029046814541602465 -0.0005169139072233707 -0.0001421169191312443
1410 8.538547424991983e-07 8.793921133612327e-08 2.6687335799488605e-07 -2.927571392486368e-05 0.00013437640460926568 5.83926214612315e-05
1785 -2.0154811252712225e-06 1.7110570698869672e-06 1.5994957820469367e-06 0.00210067554292862 0.0017522212016974476 0.0005633592703424157
825 6.708695739168845e-07 -3.714246761329859e-07 -4.535393973842111e-07 0.0006211195778697538 -7.633002884512713e-05 0.0003904155133619233
2096 1.2784050909153033e-07 -1.3873597868297809e-06 1.0372079007920518e-07 -0.000637478850687708 0.00022103160106715572 0.00048273160669097244
823 8.158369069032332e-07 5.141144514298922e-07 1.279763141108897e-07 -0.0008039716187043796 0.00028626107092042784 0.00032117053609644145
1926 -2.1698407084036772e-07 3.0100205051279256e-07 1.6479262180668208e-07 -0.0005155489024209677 0.00011665704820327616 -0.00039478894471615066
1529 -2.4249942671651924e-07 -1.4031928861454507e-07 -4.317249762544924e-07 6.397455645565828e-05 0.00013457444420447948 0.00024216193446888662
1908 2.0718274543205206e-07 -2.7543952350184045e-07 6.554691074227092e-08 -1.2505043530087022e-05 0.0003058147925733776 0.00024750853614434465
1829 -7.996607451273285e-07 2.868370905745158e-07 2.102146095204645e-07 3.40706982283041e-05 0.0002072949491776391 -0.0005418038426390431
920 -7.799364932116275e-07 3.3947281226033213e-07 -1.774840961269747e-07 -4.604463095059941e-05 -0.00029707946442454885 0.000933200770291746
1129 6.91167118101337e-07 1.0017955645466457e-06 -5.090003668048455e-07 -0.00024217683881545149 -0.0003606508335171289 -0.0009742878369824547
943 8.196282807354555e-07 -1.1587561667328491e-06 -1.207963557732919e-07 0.00011398836391889676 -8.370171748393837e-05 0.0002269549433252519
237 8.459528194226083e-07 1.5397194716339445e-07 1.0273807856804812e-07 0.00034715108753127777 0.00012223855035409023 0.00022169680563764575
1469 6.786741988083862e-07 1.5687277839450657e-07 3.890688026883983e-07 0.00021195834764372454 -0.0003558692835900292 0.0001403219879579683
1763 1.0751804202198536e-06 2.8738093121192903e-07 8.233032124713832e-07 0.0008713395071260906 0.00027703358838777133 -0.0003402239847351845
1753 1.0304509481967482e-06 -1.1488451924430406e-07 3.5551574756818184e-07 -0.0001393512719579615 0.00022962008685975088 -0.00021489950950945118
2087 -9.252695754486054e-07 1.187110092930069e-06 -1.476199118270538e-07 -0.000497916024684742 -0.000981874772651529 -0.0007058909103283884
1953 -4.0818141501924815e-08 5.130813716145247e-07 -2.2916503949665344e-07 8.744832649173429e-05 0.00025725900035088894 0.00025533215160690784
1232 1.163151146626346e-07 -1.9875276440044893e-07 1.1600502442779115e-07 -0.00030437627716369323 0.0003459917656658841 -0.0004510228567374841
845 1.866871242104952e-07 -5.528694941774694e-07 2.6453765204612287e-07 -0.00037557228617416603 -0.00027305693756321016 0.0006007795129060555
1414 -6.48992852658833e-07 -3.9770052488934506e-07 2.2085908467607845e-07 8.778188682212717e-05 0.0001217513294411291 0.0005316494265422939
1501 -8.879666610913354e-07 3.790715427239635e-08 8.015014700421177e-07 -0.0010552503855866175 4.60165549327423e-05 0.0014693943230923775
836 -6.581471909497001e-07 -3.499701820538972e-08 -5.434536665881358e-07 -0.00012849025779212135 0.0001437999846228445 -1.2892674804255656e-05
2078 -5.658897496567697e-07 5.295896214434439e-08 -2.6775659034505875e-07 0.00016040777501935034 0.00019872581870012507 0.00018660757153304296
1163 -1.5602111458916344e-07 -6.135723301152681e-07 -3.061798834780736e-07 0.0002673621538065379 5.9974852544594774e-05 -7.267905236830144e-05
887 -1.2169184626041628e-07 1.558347649201367e-06 7.559656082177632e-07 -0.00096194581049588 0.00010994232067946964 0.000548790468704652
1301 -9.92700361248014e-07 -1.6746182350429328e-07 1.0969372070561371e-06 0.00023672951287417277 8.274620016008895e-05 -0.00033151423554099327
1456 2.980663375803367e-07 -4.626446586656043e-07 -7.332213354512904e-07 9.441267583421562e-05 0.0002559798734916353 -0.0016558872121465765
1253 1.2937044199039775e-06 -9.973392263449232e-07 -6.437566998641013e-07 -0.0004186865080946024 1.8121120958588704e-05 -0.0005789090416233639
934 1.2882376919658111e-06 5.582864204819564e-07 -9.260529962276319e-07 -0.0002658530087613598 6.627380178894135e-05 -0.0002338934942509758
1769 5.046458339058497e-07 -1.086021942155859e-07 4.146275965286371e-07 -0.00011105066399125137 -0.00016146297637869886 -0.00044170750457607987
1492 4.473065299839443e-07 -2.3120480040948154e-07 1.1989538366321251e-06 -0.00020196759324646836 -0.0003117253625084118 0.0007928715163539054
1395 2.2624159798374662e-07 -5.179574635805931e-07 -5.884101035917101e-07 0.0008081850968801753 9.552299234059945e-05 4.7750075690024e-05
1480 8.152603990741208e-07 -3.8031365214820065e-07 -2.7068967022422875e-07 -1.5571009976696688e-05 0.0002712985708943659 -0.0003534340285451743
2010 6.813081018267229e-07 -5.356278472316763e-07 -2.1456852767875357e-07 8.603644170798201e-05 -0.0002527736093568212 0.00038590119133912604
1929 2.194123998990582e-07 2.1161413093267634e-07 -5.989033200726859e-08 -0.00014349256734197004 0.00030237653637847666 -0.000601476328971342
1386 -6.570560895959058e-07 1.8078856146813906e-07 -1.0850343622577724e-07 -3.3012936494042906e-05 0.00014752216533780923 0.00019374528346616582
1862 -8.422398669360913e-07 -1.7348977068540526e-07 -2.1058899770707253e-07 0.0005273415876113787 -0.0001205205368682662 0.00022579816297819654
2 -5.37830502002858e-07 -7.54409276583373e-08 -3.930289467876251e-07 8.755381376202117e-05 -0.0001029456800810314 -0.0001338881611721998
1088 -2.874772454876156e-07 7.623382829079671e-08 2.3233575468021249e-07 6.576541071353973e-05 -3.849543723963033e-05 -0.00011737435259852491
1291 1.0820504021689215e-06 -7.786313796673811e-07 -6.919482214040113e-08 -0.0009410099435399089 0.0003354346634450692 -0.0011083987996366536
1361 1.14935910926475e-06 -1.119863614862789e-06 -4.734408653764949e-08 0.00018598715129177051 -0.0002632579176895367 0.0010160474033394258
1728 8.424715579493332e-07 1.4306073261448934e-07 -1.0668952299162197e-06 0.00017576893707533313 -5.2582503491306596e-05 0.0004698411546191054
1586 2.3791100132212798e-06 1.7518397528878713e-07 2.517236930022397e-08 0.0004251892043163951 -0.00019791500161842738 0.0009226971609375183
1590 1.8418837498654749e-06 -5.834569020371332e-07 -3.590872753480377e-07 -0.0006577101619464491 -0.00013785457365667725 -0.0018160247989021225
239 3.890699504375982e-06 1.2856734785363544e-06 -1.4392970041826298e-07 -0.0008126079591604064 -0.0009033513867591935 -0.0018791992186960444
1808 3.6575925000462195e-06 -7.038921526230553e-07 -1.6716513256151619e-06 -0.00044438305999903565 0.001793908013218402 0.0002660168768929072
1353 5.652658888055164e-07 -3.446264491838956e-07 1.755739375466612e-07 -5.232646216428141e-05 0.00035064286458360173 -0.0005463259642370645
1603 3.6919579531754587e-07 3.151899516024164e-07 -1.0407373427617075e-07 1.8633249999205964e-05 0.0002019758246184754 2.3638944117003282e-05
1006 -4.051563618536187e-07 5.699459922220077e-07 1.7541605146537e-07 -8.588712020803848e-05 0.0003654615620652271 -0.00014932306568798308
1199 -6.579520294884424e-07 2.5387568640606147e-07 -1.1827576461802947e-08 -0.00044035727168517544 0.0005518741546042168 -9.562819565300622e-05
2068 2.3493622771866572e-07 -1.749453733689018e-07 1.5832229246397456e-07 0.00022100178547266558 -0.00018604120983838301 -0.00015805749409531191
981 -1.8564919202065197e-08 -3.7931196185880654e-07 -1.7248245071253178e-08 0.00016217663376840398 -9.325599759039629e-06 3.400856472299167e-05
1658 1.4265304706996435e-06 1.227631265656884e-06 2.0913110995683027e-07 0.0007635745321129019 0.00018197393517244712 0.0017505233930903109
1367 -5.628881248377673e-07 -6.891792971315781e-07 -3.94596341494911e-08 0.00044808908776439415 0.00016995226624948856 0.0008800891182330373
1233 -1.376774782393576e-06 5.7994851310427755e-08 3.153612314776205e-07 0.0001641088073343843 0.00039873101676033887 0.0001565280502655487
873 7.62124038926626e-07 -2.9891264410971424e-06 3.269228807277609e-07 0.0012812384398398938 7.48774364688343e-05 -0.0006470581558055696
1318 3.4691622481126025e-06 6.897015805781324e-07 -5.888079091054748e-07 0.0008656860252416916 -0.0003278082577756995 0.0008723413117461574
1503 -1.8923648138811427e-07 -6.132017467953963e-07 5.8742357329598786e-08 -0.00016873669220596405 0.00031588997809100155 -0.001170928020605571
1821 -2.216341534147417e-06 5.012168639607659e-06 1.0009469104056876e-06 -0.003162357127733106 -0.002020595670426055 0.003348309767045606
2135 3.9120462569819317e-07 -2.966814478207931e-07 4.659592693929168e-07 -7.323120791861401e-05 -0.000979739058346765 -0.0016418582201543747
2111 7.695356576736689e-07 2.1494095035983682e-07 -4.747312614194928e-08 -0.00014659242678764103 -0.0008817444075937156 -0.000835730694055984
1869 4.535831381274611e-07 -3.4358747933384817e-07 -2.1918993059038395e-07 9.922836739694603e-05 2.6296254037030493e-05 -0.0002510869873008355
553 -7.884214507989561e-07 -1.6308045783363365e-07 4.863711238444515e-07 0.0007846082818875293 0.0005167255571427344 0.0007064101856070883
1671 -1.0798250301310735e-07 -2.485675152215827e-08 -4.1345632167249794e-07 0.00016496126827378164 3.260123758764502e-05 0.00042052253951459337
1123 -4.4743192418892887e-07 1.1158129653355426e-07 1.912819510690565e-07 1.4412336029693393e-05 -0.00018650219923164497 -0.0002584292495711533
1091 -9.153123586227938e-07 -2.5300934769778743e-06 1.903397183303351e-06 -0.0007288091216226626 -0.0003872609084879525 -0.001026348373515252
1229 3.2642254232418203e-06 8.204870579847162e-08 7.192481910423292e-07 0.0007974913923262138 -0.0007088104064658521 0.0008070194049358273
1663 2.1369509630873445e-06 1.1574493349840072e-06 1.8049288691941233e-06 -0.0007169134740914409 0.0009093129662517577 1.0513131441586049e-05
1794 -2.5160285739760216e-06 3.550302708837311e-06 4.930623509626176e-07 -0.0024528259539166107 -0.0037258192913039957 0.006168227345663343
888 1.4036028154996645e-06 -4.409289115812585e-08 -9.967311391270845e-07 -0.0005232636097490322 -0.0006009673310475889 0.0013987376923332824
947 1.312267049449615e-06 -1.0580628047339904e-07 -3.562216859587578e-07 -0.0003180077614959471 -0.000842817942509457 0.0001543086934827925
1060 6.290267692882246e-07 -4.680299342917668e-08 -7.448407524780734e-08 -0.00035023279230366096 -0.0009039727420146954 -0.00043710539698237706
1067 3.0115740713725126e-07 -1.678926201889514e-07 -4.3721612124097905e-08 2.2344996309334202e-05 8.361725404750953e-05 0.0003301937058170185
1073 8.979944925450253e-08 5.360158176789394e-07 -1.2258464290023597e-07 0.0002897883853023082 0.0006102598399924125 0.00016072670671839418
1563 -5.882979520740907e-07 5.416152723896558e-07 -3.5641099830611953e-07 0.00021560165112588712 3.9671297816891774e-05 0.00017769505390807084
1561 1.313551689362139e-08 -3.837699094011795e-07 2.04481818757939e-07 -8.965470022792362e-05 0.0002059086145854344 -0.0002886275426000829
1460 4.5798805769887595e-08 1.3672061199147458e-07 4.0105688732929994e-08 0.00013662971158601113 -0.00019643486206341227 -2.3577099117356173e-05
293 2.7732935246614006e-07 -2.5040275026734646e-07 5.143573008394164e-07 8.625336587670429e-05 0.00021212715237332202 6.409629709216248e-06
1028 -4.010600757013018e-07 -1.8529632763656813e-06 -4.377350232281168e-08 -0.000747675333820245 0.00014329301123269027 0.00113510141079074
900 2.5142032106519974e-07 -7.49141301468447e-08 8.297327740976307e-07 0.0004312185872277123 0.0001885973607688262 0.00015975471286213395
1933 1.3042875058595369e-06 1.633191293551751e-07 -1.785912859244405e-07 -0.0009918067949059137 0.000528903474308934 -0.00034953969943580723
958 -1.535703006090479e-07 -7.213957291644291e-08 3.854346298455305e-09 -0.0003302506524741508 3.3547807145042605e-05 3.958425676263445e-05
1317 6.364305586345018e-07 7.959158942576279e-07 -1.7285055592980598e-07 0.0009736325255651279 -0.0011139333748480444 -0.0002984321717956997
1765 5.183497168342155e-07 2.245638695894765e-07 -3.074596203572536e-07 9.496442212942378e-05 -0.0005794537427457102 -0.0005105516693721093
1309 5.285763272586322e-07 -2.2047108519248168e-07 -9.51715749418543e-08 0.00035602413433097324 0.00013256269369781203 0.00018079097685397684
1652 6.865129373695241e-07 -6.469603296327297e-08 6.884291899578887e-08 8.459884151353354e-05 0.00028754949255296674 0.00021065087522595158
1952 5.374906665190074e-08 -7.24395254995135e-08 -4.855756392541628e-08 -3.644932245458828e-06 0.00011876996873149934 -6.592424994212185e-05
1716 -6.728538518202432e-07 2.3668692611443415e-07 1.4751333650626816e-07 7.159919288519359e-05 0.00037397540767335994 -0.0002074135965927028
1432 -2.7729410540506e-07 1.1345843473143953e-07 -9.224280295637357e-08 6.610504331300346e-05 0.0001296078321093119 -0.0001669563337669357
1885 2.5274991408175455e-07 -1.0439809850166073e-07 1.3789231902472618e-07 -3.962660493677571e-06 -8.859369452263844e-06 0.00018610295699017268
868 4.1762912094412946e-08 -7.695854394506455e-09 8.959973965007849e-08 0.00010694212647841568 -0.00024177880336796173 0.0002218701294730764
698 -1.7337217126790271e-07 7.343970275158013e-08 -7.539623751897774e-08 -3.440087417064054e-05 -0.00013557784120065894 0.00013543202678129403
640 -1.1014516883334177e-07 1.5571590150906785e-08 7.35985231903474e-08 -5.3624108283828146e-05 0.0003066853893938548 0.00012508884996153616
2190 3.053522367504778e-07 -5.736792717903068e-08 5.414459053623634e-08 7.225482533639134e-05 1.4916538788626936e-05 -9.685531856658188e-05
1840 6.478756432344611e-07 3.9041413439601134e-08 -2.3337882927281576e-07 -4.00325919686379e-05 -6.0097117054802446e-05 -0.000279395319880682
2063 2.2807533539763438e-07 1.4288798131525873e-08 -1.3290464253087434e-07 -2.984905282023769e-05 1.1539832804324855e-05 -2.4436716086285115e-05
755 1.8175163836118735e-07 6.602596459954522e-09 1.5133319523421675e-07 1.5649564324585954e-05 -0.00022883507071642841 -8.18516049303962e-06
1527 1.909059966792189e-07 -4.171614328126866e-08 -5.035200940445444e-10 7.968636138431539e-05 -7.376617500807231e-05 9.384856852959256e-06
1210 2.0131760036192223e-07 -8.611685627975224e-07 5.7075177319542207e-08 0.0007087638289119533 6.823047436709293e-05 9.242266807766145e-05
1205 9.274177684590623e-08 -9.230360368586948e-08 -1.224702123447364e-07 8.30600840771484e-05 -5.989190540324492e-07 7.479832005667766e-05
1337 7.938713793220059e-08 1.1796483576830334e-08 -1.5996087420116782e-07 -4.4087190015108926e-05 8.805194203584763e-05 1.698177464867543e-05
1345 1.883843811675277e-07 8.686089686643268e-08 -2.4467025979639914e-07 -0.0001690856347682901 1.64039261531096e-05 2.2696033143407785e-06
1482 2.2828710536880722e-07 9.165734467206993e-09 -1.4363589159852116e-07 -3.0252681157104815e-05 -5.8077884793981334e-05 -7.103365014788785e-05
1137 1.0575451335924505e-07 6.3023736159706324e-09 1.577870888617086e-07 0.0001064114810685144 -5.613652040978405e-05 -9.321141192028876e-05
1135 7.087717798179091e-08 -1.9496665357858908e-08 9.665573914304102e-08 0.0001612387286284071 0.00010776585468842085 -5.301141457810908e-07
422 -1.4666911647688055e-07 1.342648043634118e-07 -4.478298478314007e-09 -0.00015964871406815167 -0.00026814378040280297 -0.00037640383729114395
1171 3.255287628549071e-07 5.370481746979634e-08 7.288561441563208e-08 -1.9643599256084088e-05 0.00025665317595647657 -0.0002497101886044548
1451 3.6932306468491177e-07 -7.452285615156565e-08 1.4981269374641768e-07 4.627616726260487e-05 -0.00012882610234725975 6.199598120615245e-05
443 4.402174667219129e-07 1.5859104613107097e-07 2.9959848174026964e-07 -1.417069377831986e-05 9.854936735232984e-05 8.146008581657613e-05
1754 3.886647958911322e-07 5.55727019931542e-08 2.191303716056887e-08 0.00014664706253651264 4.033638713036588e-05 -2.4513948598769997e-05
1340 4.269510440229539e-07 -3.897905008852229e-08 1.8619384327855535e-07 -8.533054321295821e-05 0.00025276850880108503 -5.374054887446379e-05
2146 -1.2755747072994808e-07 1.7379898258286123e-07 5.455564690926495e-08 -0.00011405110632183538 0.0003250371657096541 -5.17002715137212e-05
1944 -5.349598549719319e-08 7.803451647641689e-07 1.6806262953084373e-08 0.0001880009165533092 -0.00027897553093638274 0.0002214307459988363
1148 1.6913652980245683e-07 -2.437826186610603e-08 -3.764500613313363e-08 -0.00010474104991448058 0.00015205913657689564 -0.00014755881485820392
1236 -2.0847743453317787e-07 2.2621975797484957e-07 -2.2721204917037957e-07 -8.46948074502019e-06 -0.00011667712600143581 -0.00023876982129473204
184 8.509724063024792e-08 -7.52099041321106e-08 -3.408298629255262e-07 6.594338778975258e-05 -6.217344035487225e-05 -6.838714049318082e-05
1802 3.637177417769108e-07 1.191672311492907e-07 -3.969605116253663e-07 -1.7819548706919795e-05 4.722454036994282e-05 5.217774519331472e-05
1287 3.390135633855188e-07 2.802284424169439e-07 7.492961071965405e-08 0.0001515179067993823 -6.583616278492016e-05 6.11256725902579e-05
439 -5.745874950721403e-07 1.4241929056201639e-07 -6.08797592691381e-09 -0.00014734180144723429 -1.519745776216338e-05 -0.0004271587367222313
1440 -7.640034619297019e-08 9.334949363129161e-07 -5.740345375419904e-07 -0.00011610543973220563 0.00023221349274205267 0.0004646281546953496
1374 6.772150508026272e-08 9.660821951534538e-08 4.444903997055011e-08 0.0001551680052965761 2.6635737495097552e-05 -4.621103549179351e-05
638 3.078790709705404e-07 4.685348168765084e-08 2.8672049694841275e-07 4.8284894165195554e-05 -0.00016158978244157948 0.0002561587519459936
9 6.712721949619668e-07 1.0605512668110789e-07 2.9303681035879564e-07 6.254048686718282e-05 -8.805655423172585e-05 -0.00011483869453806365
1804 6.071986983123638e-07 5.198402017539638e-07 -1.9449320538261648e-07 -0.00014265199158126774 0.00016388582472095628 1.4768263768268484e-05
815 -1.5111443666687167e-07 -3.855368880413124e-08 6.85252078958525e-08 -3.7356859231429434e-05 0.00016588024004079822 0.00022457151776608387
1672 4.283312809775243e-08 5.802364118659387e-08 -2.16948050727491e-07 1.1928811833722873e-05 -0.0001190341232555545 0.0001784066849666554
2121 2.1681437570393595e-07 -2.0930063084719453e-07 -2.5688687408114497e-07 -1.117883561552856e-05 2.1900832855862042e-05 0.00013780455669310817
965 3.2633645840834353e-07 5.726567459494227e-08 -2.8711579457466647e-07 4.564552949118275e-05 3.877248696573023e-06 -1.9285862585207894e-05
1296 3.17218722001738e-07 2.4289697181181364e-07 -4.02785257644096e-07 -8.301474370665179e-05 5.040598645821778e-05 0.00014895701116761308
1407 4.133396106951259e-08 1.2198254563420473e-07 2.285101725083925e-07 -4.5428320879477096e-05 -4.783053967450564e-05 -0.00016588650433036956
1356 -4.076456221988191e-08 4.182338433641802e-07 -1.8796524217939526e-07 -9.16609999414115e-05 -4.7511795890019206e-05 4.032836293083964e-05
1267 1.525403626160866e-07 -2.4673886227664946e-08 1.7025616247344763e-07 -3.6662487315935566e-05 6.021457110754849e-05 -0.00011749918359567005
889 1.291569519836845e-07 -5.366426558802749e-07 -2.984354831112299e-07 -0.00010770550896131726 0.00011953239200188825 9.816566136449876e-06
1358 4.151712199266271e-07 7.460867832432541e-09 5.9509306128664674e-08 -0.0001125000946545646 0.0002332099602111006 0.00015162284987174673
550 8.936119876424038e-07 3.536356392999592e-07 2.6738929149303785e-07 3.586918684332013e-05 1.608761383000085e-05 3.0494419132128965e-06
1085 5.670830263238252e-07 -9.581168455718238e-08 3.604553280813002e-07 -0.00021432234269398888 6.910600310182557e-05 6.935157292742251e-05
885 6.207090987030607e-07 3.107885188332013e-07 -4.857542797675926e-08 0.00023707649229220423 -3.391095016814307e-07 3.609879981198383e-05
1735 3.079928547717897e-07 3.85225801660359e-07 -1.1449574717253838e-08 -0.0001450726203756567 0.00013487475139038543 -0.00027855652040320117
1166 -5.123750145484133e-07 1.9209599381520262e-07 -5.160308872561659e-08 3.9782812141260824e-05 -7.215932149499539e-05 3.059872118541751e-05
693 2.3286373337185458e-07 -3.2459734627599694e-07 -2.1232823684035523e-07 7.698557706533227e-05 -0.00010566063434135043 -0.0001086838767833
1404 4.934382617160209e-07 7.783620886873026e-09 -6.809350363514857e-08 -0.0002964356601963651 0.00032602400378040514 -0.0003534531286070277
1120 2.2638517629618934e-07 1.755209472021084e-07 -2.503226584893477e-07 0.00011053485233381215 -0.00016328228491151826 -0.0002753799542493619
1022 1.4766208497483286e-07 1.1051650496867134e-07 1.6357165705537354e-07 6.136088302722565e-05 -2.302209122542595e-05 0.00019247563793272745
1366 5.2724502270531356e-08 -9.785395118222507e-09 2.667806174609315e-07 0.00013348146334032636 0.00013829630137967555 2.7561234295271494e-05
1405 1.400193174321396e-07 2.105189447405817e-07 1.2695684340860917e-07 2.6710839026100343e-05 -5.4378459744176045e-05 -1.9777647947778606e-05
266 7.296868564708737e-08 -1.4072538341962824e-08 1.7664724619061167e-08 2.0079121831791443e-05 4.341033294656256e-05 0.00016157139157456816
2110 1.4876843363489017e-07 -1.925409340255436e-07 3.40231608782539e-08 2.276496177547896e-05 -6.287124105095711e-05 -6.334066240074545e-05
169 6.621805765498777e-07 2.288739025912289e-07 2.940441135453192e-07 -7.91428333708333e-05 -8.720334732136119e-05 0.00015514850053762206
1462 3.5215838798257926e-07 -1.099424902361244e-07 1.7040853083803372e-07 3.440813581476039e-05 -0.00012350854852658427 -6.511736632745741e-06
773 3.6374299483654536e-07 -6.379141058205502e-07 5.833097962161604e-07 0.00015519240744868093 -1.5020015147982176e-05 0.0006021539539600492
1428 7.649753477276736e-07 3.517959963908349e-07 1.213510069822127e-07 -0.00019902222825486478 0.0002117982296410318 0.00013078519035720682
1775 8.110605999430601e-07 5.692281564116226e-07 -3.3721989227034986e-07 0.0001008430563762493 -0.00019935349806081792 -0.00015830865770789974
2045 -2.650107215421252e-07 7.505856635508062e-07 -5.053291227753864e-08 -4.0034685411369496e-05 2.3974831179130142e-05 2.902808431745577e-06
1294 -1.95720156997031e-07 2.4988749940397855e-07 1.2861507968003578e-07 -0.00012060300948958179 6.873824634171991e-05 0.0002474960686919139
798 2.404615735084752e-07 -6.183711503080479e-07 2.161091112221118e-08 -0.00010511353883096202 -0.00022053701846784618 -2.020384535964825e-05
1165 -1.8042297950772894e-07 -1.5786008157714635e-07 -1.7039221941753638e-07 0.00010209663752028371 -7.32941373676507e-05 0.00011542308183861447
1580 2.8826359900128844e-07 -2.721939278300255e-07 5.478795514538947e-08 2.38117769578636e-05 -4.6704414108487354e-05 -0.0002274572596989083
1222 2.077952051916852e-07 2.0243831601581242e-07 7.703661627306413e-08 8.833292731133898e-05 -4.6614338131795564e-05 0.0002534789747328241
316 1.6101803183449176e-08 1.9573464909645788e-07 1.5832333549558768e-07 0.00011242481247532028 -1.1628183156457667e-05 -0.00018381108844969018
426 -3.0151508213235727e-08 1.4213721731006546e-08 2.345477658107851e-07 -8.517097925769605e-05 2.7326662718775808e-05 8.811988464116542e-05
753 -5.0403964913752456e-08 5.433495401937481e-07 3.43523899552781e-09 0.0001538300127304267 -0.00010777002139739638 0.00026712732734427254
1176 1.1268934838917829e-07 5.405772793110291e-07 1.5221050725506915e-07 8.288680543178652e-05 0.00031710161457446854 -3.5587466972166275e-05
50 -4.503278924029084e-08 -4.85883136786544e-07 -1.2119712912784773e-07 -6.886914911757733e-05 -0.00020719269525997972 0.00019916805608019043
2000 -1.2167481909577077e-07 -6.7824562222305e-07 1.613325452889506e-07 -6.074076713205688e-05 4.65946055208291e-05 -0.0003886254755750827
1817 9.846579483938049e-07 2.207771222380604e-07 2.5486791043355736e-07 0.00012870260059054864 0.00023351182600985643 -0.00030340423976486547
1214 3.1236545313389776e-07 4.753668694906928e-09 -1.480481033711901e-07 -0.0004919659665995743 0.00019348065244325537 0.00036105151667573316
894 4.913080253018509e-07 3.2431080616980574e-07 1.3704265031552405e-07 0.0002204239651429578 -0.0001016849497053551 -7.577718379906207e-05
996 4.357159556683177e-07 4.504315388238054e-07 -9.267029951094346e-08 0.00012090130911096218 -4.392654986414982e-05 0.0002936262415965686
1283 1.3248802006086454e-07 2.8512136938858313e-07 -1.5837940292654287e-08 -0.00011460143223162462 -8.739923253616487e-05 -9.557104941694404e-05
1938 1.039018633556902e-07 -7.695275056181325e-07 -2.659232056674037e-07 8.129541292740292e-05 0.00014662688646167407 -4.627143610396777e-05
281 4.1405944841029926e-07 -5.803627317343043e-07 2.689355477671642e-07 -7.46868726896855e-05 -0.0001303909259402297 0.00016375830678273877
622 2.7554241200913473e-07 -3.7185633803410324e-07 -8.616965343508773e-08 0.00023649283517035088 6.464200861684115e-05 0.00043229981311930965
520 2.2190550999217705e-08 -7.906870990687094e-09 2.458806133260243e-07 2.7308734857503916e-05 9.252272501224548e-05 0.0002884452941203636
1215 4.2608364554805705e-07 1.8335770513199233e-07 5.102603644164724e-08 -0.00017222525732041912 -6.879473723468272e-06 -0.00019862677205652413
1555 8.512597943140318e-08 -3.2187544269487756e-07 1.3378400470760488e-07 -0.0002901505336541661 -0.0003973231763276115 -0.00025186765473227596
1167 -2.2021429081697364e-08 5.605716308255031e-07 1.2484500630100652e-07 -0.0001690046954942995 2.2765824858787776e-05 -0.00016574804599992765
701 7.017862323755304e-07 -3.0904481802586725e-07 -3.9732287743714277e-07 4.8482107024663926e-05 0.00022459704730260497 -0.0003874665515805373
2075 5.067232960933847e-08 -4.0278288271454676e-07 -6.414090497404449e-07 -0.00014048972389471123 0.00019755619313440703 0.0003121988855862728
910 5.54374457088272e-07 8.323621752614718e-08 -2.5251369191375296e-07 -0.0002701594137019672 -0.00015222646622046953 0.00037752900293595447
1376 6.598075664077708e-07 -1.024950154061745e-07 2.503200603048917e-07 3.1676801947266026e-05 0.0001412970750293718 0.0001342054709972204
1575 -5.087381744557848e-08 3.254588170275082e-07 2.502956809539465e-07 0.0001583221825040454 0.00013081488477157915 -0.000132489139912849
260 9.816737321417202e-10 1.0142244149835962e-07 1.4862257511646599e-07 0.000246527988879831 7.57115508115935e-05 -0.0002008750198191088
1256 7.02571610714031e-08 4.901311971846693e-07 1.5266125463530517e-07 -6.668441228000789e-05 -0.00022043887687044794 0.00038811170892595745
1070 2.777474413704816e-07 9.551781029236823e-08 2.492668047261501e-07 0.0003362573618932249 0.00020427962160127512 -0.0005757154430142803
922 4.886556071605191e-07 -7.023253118353893e-07 -4.077335276016136e-07 4.6770854355172804e-05 8.565022377851842e-06 4.896972590803259e-05
2094 7.507612217109808e-07 -5.496166069276926e-07 1.9094160868925797e-07 -0.00017992021650812013 -6.875365554387314e-05 0.00012073194286539991
1099 1.0950376989616841e-07 -3.868131400112389e-07 1.6835745625126268e-07 -1.0777614240171173e-05 0.0001328183309759349 -5.43048542468358e-05
2007 2.2948330877739093e-07 -5.50588038331885e-07 5.333057569420204e-08 -9.889385476159591e-05 -0.00016174353786658214 7.986706437809208e-06
1980 -1.6366919914010448e-07 1.6619839608471812e-07 1.7573037183290205e-07 0.00025801522071746503 0.00016252653186349608 -0.000248794142018125
1132 -1.2639888417398485e-07 -1.6243678750894764e-07 -1.4472795871897377e-07 6.07905157997773e-05 0.00010339113722253291 1.71127041400134e-05
468 2.0080013469024622e-08 5.128576896772609e-07 7.260724957509541e-08 0.00015537616558043078 -1.031873709528389e-05 9.64303112459157e-05
1588 1.989439169429786e-07 -1.7334181284170606e-07 -6.900566495926358e-07 -0.0003356622501785001 0.00017160103913070376 -0.00010932942192016644
739 6.631101716970106e-07 -4.600803857230527e-07 -3.1142468445468916e-07 -5.990223425287902e-05 -2.4728175513002445e-05 0.0001556910297022078
1300 -3.580631564543733e-08 -2.983452797651044e-07 -4.1018223165251176e-07 0.0002921200456410348 -0.00012487136075253356 -0.0002954450642889297
948 1.5902344987596491e-07 -1.9230446261495675e-07 -2.335441328855709e-07 -0.00026752071545567635 4.1361363806622874e-05 0.00020716201735007176
2137 1.76537535874076e-07 2.8708083708801193e-09 -2.0333458334835816e-07 -1.9571638437938786e-05 -9.56607937785076e-05 -0.00020957412851263776
2098 2.0772434045815724e-07 3.573242890497148e-07 1.2681864436431932e-07 -0.0003316871856073108 0.00028983876160028696 0.00012415375595231247
1474 1.759755486920136e-07 -8.790326147969058e-08 7.635142853269605e-08 -3.500822792072268e-06 -0.00010739045496319375 -0.0002669381718796236
1266 2.66600193230377e-07 7.286492899618436e-08 -1.0953499476177181e-07 6.186932508372171e-05 0.0002409471949189714 0.00027226448991071376
1757 3.230398256468259e-07 -6.915865213278565e-08 -1.4387542639648762e-07 -0.00035807440040470814 3.894139322715678e-05 0.0005316122759464123
1838 2.917847535183797e-07 -1.5127206681354289e-07 -2.1813745267891802e-07 0.00015261353168503526 -0.0001508326070334115 3.216952757827349e-05
2033 3.942824033976969e-07 -1.0321778749070994e-07 2.316940787975999e-07 -9.334333024983971e-05 -0.0003425552097034259 -0.0009550916967703469
212 5.726551044084695e-07 -3.6112411705146546e-07 2.407995064586553e-07 8.168418241488003e-05 0.0001883724819477003 -8.794832297298834e-05
1322 2.1836273148922475e-07 2.0002522550247902e-07 -3.158877108549052e-08 -0.000441476211270459 -0.00015762048607673884 0.00019206251664202707
302 2.4431779877240867e-07 2.482861088883827e-07 -5.240394877118371e-08 4.7684224294189456e-05 6.650430122821763e-05 -0.0005982418490477034
1973 1.204614221123155e-07 -6.745402677605998e-08 -6.16573567998134e-09 0.0002676852778925796 -2.8952378205530214e-05 9.018918926188832e-05
1000 -1.3210996623591789e-07 -1.3168271452724751e-07 2.2470487039246875e-09 0.00020499271826193396 8.767492116805854e-05 3.614715963874604e-05
734 3.551333866756603e-07 -2.1827778337230364e-07 1.5573881699777793e-07 -4.9493687377294375e-05 -7.049775488298868e-05 -0.00028619715576574603
982 -3.414934236648422e-07 -3.173983086266556e-07 -1.9009672045798934e-07 -3.492568000609367e-05 -3.7155974815623465e-05 0.00024077134088845129
654 -1.8616104051433596e-07 -6.298352732089046e-07 -4.455314233314008e-09 -6.152362878776602e-05 0.0004729948653281789 0.0004710089509871008
1305 5.4812535550096697e-08 3.354456739582864e-08 -1.5001744870933432e-07 0.000329042447812099 -7.41316568270404e-05 0.0003256487134258697
1843 1.1821077994789417e-07 1.4281481107147706e-07 -2.1225917497763483e-07 -0.000101862999125856 -0.0001287439993613356 0.00014648887019073025
1798 3.3131628950955344e-07 -6.500204997912186e-07 2.9826520559031987e-07 8.376222689212762e-05 0.00022834307898906428 0.0003699064066640306
1227 1.480511510857991e-07 -6.235780969242304e-07 1.2730741408654526e-07 5.189393654021206e-05 -0.0002159718289741888 -0.0005332945339362331
1252 1.5225119763301525e-07 -1.3774458692460483e-07 -3.3479154703116075e-07 0.00036306502486762704 0.0008556107823562786 0.000562913888818176
1710 3.234968825833186e-07 1.0808602744173546e-07 4.356455716437087e-07 8.741499365380031e-05 -0.0004463425550564941 -0.00028073245784944673
1465 2.4442300072903484e-07 4.6143702494748884e-08 1.7594884628689555e-07 0.00020430713826717812 5.3511481897425227e-05 0.0004691745819676047
608 -1.2088028198444972e-07 -4.584860265565157e-08 9.205074829137896e-08 -0.00020031028782219618 -0.00032538869532007693 -0.0002029939545569733
1827 3.104863390495824e-07 4.789582434348877e-07 4.146472937435034e-08 -0.00033395165705173656 3.57799567353377e-05 -0.0001789553745006338
1993 -3.1046761438511706e-07 -2.3008106953799665e-07 8.252521073992878e-07 0.0001087196600001844 -0.00049650962493776 -0.00010929174196656107
449 -2.418248819689655e-07 -3.459130316653206e-07 5.144853075820729e-07 6.920865735230554e-05 -0.0005618054818809332 -0.00037720530480947733
1020 -2.632169445810068e-07 -3.232720707436197e-07 8.347883579753247e-08 -3.230053179363356e-06 8.083022045330308e-05 -0.0002732090879258471
312 -8.577157338722948e-07 -4.5138683733939933e-08 -4.2686625794821234e-07 0.00020715588345194625 -3.487377236773177e-07 -0.00011031055723850456
1873 1.737463596847508e-07 1.7946162882763685e-08 -4.3551766521480917e-07 -0.0002114477700230141 0.0002821404932061017 -0.0003661390958715973
1630 2.185143202741835e-07 7.568743229861502e-07 -4.3681488202951246e-07 0.00020891978668853635 -3.4901732228427946e-05 0.0006836947063546304
919 3.743016361779593e-07 -1.0401237728916081e-06 4.724280328074393e-07 -0.0002892773907150938 -1.7309167569953657e-05 -0.0002496493483672998
1816 6.730700608725935e-07 -4.85133633327769e-07 5.370497574444205e-07 0.00014143080709225472 0.0001485887624545948 0.0005711342101288573
844 2.1850895655521748e-07 2.620487560328882e-09 3.290868598845514e-07 0.00013896877739384215 0.00012220053893468696 4.652796639203044e-05
366 1.4840979314060086e-07 -2.6732750325761585e-07 5.228224924083171e-07 -0.00011243534430661053 0.000328495826306641 0.0002895104954958846
1330 7.86674710253524e-08 1.6390650302712457e-07 -1.1667859716079617e-07 -0.00016325014809174667 0.00013837589145430308 -9.786629252418353e-05
970 2.070991400372548e-08 7.292143195025037e-09 2.0076598692125825e-07 7.57861637955845e-05 -0.00028515332214047886 0.00010326846978666136
1781 3.0950689827142695e-08 -1.6610945217453817e-08 1.996920521100796e-08 0.0001590610120091511 0.00012174029444746708 4.19682584393326e-05
1547 8.437505636675744e-08 -1.6541660335033984e-07 1.268379068167068e-07 -0.00016387087157310344 -0.0001334140501240453 -2.0668617017000714e-05
1203 -3.516446578402515e-08 -4.671964385417402e-07 2.449315301115108e-07 -0.00016086004500155625 0.00032095310076239156 -2.0782914490591223e-05
454 -1.1639369925298637e-07 -3.688661739134451e-07 -2.242729917220835e-07 0.00025628291997994377 -0.00015038746904227047 0.00016160408289200804
1477 -3.097855179643239e-07 -3.987631392129713e-07 -2.334676609046848e-09 7.49599688288389e-05 0.0002057052587959101 0.0002508600291793804
1738 -4.814856246254031e-07 3.407223351485502e-07 -1.0436225513953779e-07 -9.191189637329638e-05 -9.703214304640492e-05 7.25382215597953e-05
556 -6.936051577054226e-07 -4.529184341085445e-07 1.2922496316959e-07 0.00029073061307169324 -8.909347364858923e-05 -4.752733609546796e-05
1195 -2.0715945636302802e-07 1.3449544080479858e-07 7.3306108617633426e-09 0.00046883532556164645 -8.441826727414255e-05 0.00020948844958561396
412 9.406778442810422e-08 1.1880274765960908e-07 4.5022903518378976e-07 -4.2215955680246204e-05 0.00012170119929936181 0.00028741603174161864
1919 4.915100142658177e-07 8.102752616112998e-07 1.5025350132722996e-07 -0.0002467527664217357 -0.00032004335336700444 -0.0004160401469468456
967 9.100448511002009e-07 -8.052740683669484e-07 -3.2559138149964025e-07 -0.0005763103758054561 -0.00038178273498461733 0.0006605737156347067
1970 -5.903309698921461e-07 -6.615187745601227e-07 -3.4396147532988717e-07 -0.000373548180502107 -0.00024818136423195004 -7.853859776439484e-05
1277 -3.160816157511442e-07 1.1739504300199095e-07 2.1394773406383777e-07 -0.00011088764256029841 -4.186096865054261e-05 0.0002729685064107755
705 -1.2079741905069291e-07 -2.395766276968352e-07 5.784415363832965e-07 -0.00031017263217221957 5.8101804236906426e-05 -0.0002799257962387642
2183 2.565913102883314e-07 -2.1792791478631508e-07 7.427354125921202e-08 0.0008119809229618052 -0.00019207404287344663 0.00015048227454224103
661 4.751809216921367e-08 5.191265125194106e-07 1.2430284137587127e-07 0.00019351863931431587 -0.00036066045581995796 4.782850423809526e-05
673 -3.593813964260765e-08 3.746144528314255e-08 2.6552320018074484e-07 -6.040823621262414e-05 0.00027633915473185256 -0.00016793815312531217
1647 -8.554168420798689e-08 3.3205794970176147e-09 -3.7274476975289167e-07 -0.0003780394692626495 -2.413936730877844e-05 -6.0325817319925324e-05
1297 -1.4158685831135861e-07 1.1022275853103218e-07 -7.848576639779697e-08 7.550862565016684e-05 0.0002804514195153686 0.0005814448167586748
1125 1.810368289420738e-07 -3.0740557945485974e-07 3.620718596813461e-07 -6.95200582980849e-05 -8.090384826891562e-05 0.00010552063942562301
1907 -7.849783555798992e-07 -5.819787782335358e-07 4.4567021872513743e-07 0.0006535612444244174 -0.0002812994677385717 0.0012808912549703226
2174 -1.360872308665776e-07 -9.765031055596511e-08 -3.5846006530608914e-07 -0.0003144326876517101 -0.00011392750090336316 -0.00040000847787326357
1083 -3.50949689255326e-07 5.575730361235402e-07 5.36015599863325e-08 0.0001736459780977069 0.00013199206512845481 8.887681406571384e-06
1969 -4.070718722071646e-08 -2.185511338414369e-07 5.065659586696012e-07 2.651174542689412e-05 -0.00023370192295632595 -0.00032373941807169724
882 1.9250476805322534e-06 -2.1231853810030773e-07 -1.1388740239354373e-07 -0.000503551622923956 0.00010039511565065511 -0.0003847091973236077
1654 6.160654200526563e-07 -6.332674668176139e-07 1.1584376093727965e-08 0.0002968051097225271 -8.049707246978768e-05 -0.00043274014851513897
1191 -6.459524316017894e-07 2.9240593225714334e-07 -2.1276740899870871e-07 -0.00056321448998205 0.0005240366363407706 -0.0002514558529820661
2192 -7.130918186965955e-07 4.2636447754026724e-08 -8.017659148155772e-07 -0.0001860105356194251 -0.00034922381015900657 -5.9734317066481e-05
1489 2.399526677914494e-07 -4.803377572442134e-07 -5.211211071361353e-07 8.996712818886085e-05 -0.0002150180910603523 -0.00016767834674151686
76 1.4925160499625213e-07 -2.2297837334590594e-07 -5.977829581942886e-08 -0.0003954604610190153 -0.000445690349943895 3.827844193789382e-05
1998 1.1835614551206961e-07 -4.013408724131605e-08 2.731873128543043e-07 -0.0002867609381534512 -0.00029762863631638574 -1.601756180046511e-05
1512 4.4650512129874823e-07 -8.783630880389096e-08 -2.929638454493716e-07 -0.00016343347630517186 -7.916200430441204e-05 3.7363193740939376e-05
1402 -1.5082857887362828e-07 3.9255063389617846e-07 -2.0097103240646932e-07 -0.00012420302609646822 -5.160094140820912e-05 -0.00033304599605017384
1483 1.7724152331895103e-07 -5.310357723465839e-07 -1.0607362888071717e-07 0.00013090537854715652 7.273120063611598e-05 0.000315119467293121
1244 -7.064940493917404e-07 5.815564592263788e-07 -3.433597177904549e-07 -5.382529215047946e-05 0.00020295261711607927 -0.0006178709446123555
1278 -5.62420275594833e-07 -1.8615899094187053e-08 -5.5213867057289233e-08 -0.00013911209118056553 -0.00040788891164716625 0.0005191762590566655
1743 7.07111951802731e-07 4.116500022501874e-08 1.2854517864172495e-07 -0.0002064200165775991 -0.00044544332894285745 -0.0007993170228706618
1632 6.927015549656563e-07 -3.152009002009062e-07 6.907568841708135e-07 8.060599527687859e-05 7.114046856923297e-05 -0.0006451604024258443
1796 6.917437729847341e-07 1.0521226548488937e-07 9.158113732330205e-08 -0.0006187390275689576 0.00026126507523094056 0.0010117010357149228
2015 1.8946614043688272e-06 -3.875324624370986e-08 4.68338534165704e-07 0.0007474074959420257 -0.0003367357624315117 0.0006779890773774518
1169 1.448893325178486e-06 -7.946615377598491e-07 -1.4121145151080682e-07 0.0004726179429061628 0.0011894169597003016 0.00045755743905473054
1844 6.881059089732823e-07 3.306896241051941e-07 -5.631899509781732e-07 0.0006863536580370674 -0.0003265050088707304 -4.889954290157716e-06
850 3.349932171427647e-07 -6.987698601963249e-08 -1.9969793505706704e-07 0.00026684672223904 -3.0782596724948064e-05 -0.00014677951929276066
1400 2.3411868990756784e-07 -2.7041908009216757e-07 -3.442819891756849e-07 -0.00010254830948158726 4.989216713525876e-05 5.242693865300563e-05
1106 1.9063579933986292e-07 -1.808953792538964e-07 -2.5523632266008473e-07 0.0004815082232640087 3.5388147776649886e-05 9.800644114406267e-05
241 -4.834144660152847e-07 -1.727653331090331e-07 1.3543952272192164e-07 7.903349597118684e-05 0.00030100860563898397 0.0004787688153326445
671 2.385305285679367e-07 -1.5144460902825728e-08 -3.9308767221071957e-07 0.0004260771390071154 0.0006066457680036732 4.1802525987825334e-05
1847 -3.024555937805332e-08 -1.0935870798544856e-07 -9.87515339085019e-08 -0.00023214105813079808 0.00015423045834997328 -8.631006722134704e-05
1857 -4.593918213887445e-08 -7.164898840857805e-07 -3.178308756103876e-07 8.06453646365362e-06 4.4931019137057486e-05 -0.00012508123318212251
245 -4.06007166615317e-07 -2.392399803696206e-07 2.682983153275792e-07 -6.599749717584574e-05 -4.51229255336856e-05 -0.00010972100103899635
208 -7.24905043016281e-07 -5.8191424899504624e-08 8.987368317839596e-07 -0.0004539349216233927 4.22656771536061e-05 -0.00026325286520374356
890 1.8635652401560968e-07 -9.27370714899166e-07 5.574790711223463e-07 -0.00036517614002717485 -0.00010495252868950246 -0.0004668901121233582
1426 1.0629686711855699e-06 4.1635493473824316e-07 -8.514972496558167e-07 8.98923219491109e-05 -0.00030775805411817743 0.000140903756729466
1325 -6.300922811894918e-07 1.6810789599517364e-07 7.047677717797851e-07 0.0007025825264959153 0.0006613248786072295 -0.00047686726902781843
2093 -1.802070554741998e-07 2.5970878283735027e-07 2.4349372958983626e-07 -0.0005851285246591582 -0.0005698655108097188 0.0003216640065277528
2180 4.6373145442259434e-07 -1.4162552878861333e-07 -4.760835884232476e-09 0.00048312046258382766 -0.00032604174363791346 -0.000510572162792741
1496 9.958090281950583e-07 1.3269680010044938e-06 6.315659098262434e-07 -0.00028433180481926345 -4.6831180818154496e-05 -0.00023592179808484031
915 3.3485379674540553e-07 1.2706963900021973e-07 4.314907810633519e-07 0.00012316626030170558 -0.0002363080532805106 1.6808769732507834e-05
2060 7.004623445324896e-07 -1.951736985914469e-07 -2.50710320851606e-07 -0.0005179120167315648 0.00026991543068433354 0.00013611907132764824
1518 7.907300268271027e-07 -4.534170429570999e-07 -3.1790430453234825e-07 5.674054380754693e-05 -0.00013440411227298705 -0.00016888820734564007
1306 5.550705204350661e-07 -3.722307621794622e-07 3.0395060166230483e-07 -0.0002765018142810745 -6.406707600897018e-05 -0.00011454762697950016
1949 2.825077674193401e-07 -1.7686676440698253e-08 3.3373490881582955e-07 0.0001398101516674952 0.00039598213484818656 9.987762272799865e-05
33 1.1530200402948112e-08 3.246278051994702e-08 -2.2379261924000666e-08 2.779926874558418e-05 -0.00017482442123863357 4.162627003489854e-05
1859 -1.5633042356055866e-06 -1.145362716779591e-07 4.2495114518453627e-07 -0.0006175076277246233 -0.0008924891080146567 -0.0013146894122878217
1495 1.0674157875126425e-06 4.7435732763521305e-07 5.41204790131336e-07 8.18693434305002e-05 -0.0004323870728485313 -0.00011760469352479046
1461 2.2177953700101118e-07 -6.430239738498405e-07 1.2552432863245597e-07 0.0001853520266495961 0.0001066859499546855 0.0003271800562024921
1420 4.0485198049231764e-07 1.7018570305415266e-07 -3.9194096991048807e-07 -7.96505580154865e-05 0.00011959150225188728 -4.888937636710026e-05
123 -2.7314960162078845e-08 1.2688700010758346e-06 -6.658717555084555e-08 0.0002552634331022388 0.0005940776298748879 -0.0001583472348856149
926 -9.022101461858478e-07 8.69944162474899e-07 -3.8455789410317996e-09 -0.0003662778856436839 -0.00041524195723752644 -0.0002712609558937085
1326 1.8573868145160287e-07 -4.249542774615511e-07 3.420650433183895e-08 -0.00017546043369629394 -0.00022574898687853276 0.0008020966553614915
470 4.761345825696377e-07 9.944816638539153e-07 -1.2304309572370318e-07 -0.0005292697206888235 0.00025265101231194764 0.000676705767998038
1497 2.929344545568307e-07 3.0732756699683475e-07 -1.0479037621195475e-07 -0.00019732164363821635 -9.228561197273363e-05 -0.0006685817083725608
1978 7.978654655771893e-07 3.8358885255516294e-07 1.6837943685774203e-07 -0.000257251926580644 -0.00048144876520558356 -0.00011967241350611137
2148 3.754959669544502e-07 -2.399389177552169e-07 4.40268603789964e-07 -0.0002524348959859075 -8.19886648966035e-06 -0.0002517204681728884
2119 5.437468000395778e-08 -7.189125507209505e-07 4.017083409063955e-07 0.00011272784347235757 -9.839866368730058e-05 0.0001781873206857983
1541 -1.7299689990681327e-09 9.420087150078677e-08 1.7217191092208335e-07 8.173851331158262e-05 0.00012248386808234082 1.5213203642357776e-05
1736 -2.226812317396715e-07 -4.5227874380461943e-07 4.2675639156737367e-07 0.00013540989664607403 -0.00012629265105855995 -0.00033672045788311927
1153 -6.68505784807613e-08 -6.93706405498442e-08 1.0852228377964885e-07 1.835937596089046e-05 7.313635199253706e-05 -8.59770112358719e-05
2059 1.296952924695061e-09 -2.8179829767418004e-08 -8.532274548425193e-08 -0.0002794014631239373 -9.09382121943722e-05 2.1323280952748112e-05
930 1.1901905799467394e-06 -1.1412435893564236e-06 -1.914698251801073e-07 0.00021928303795351026 0.0005582504039453153 -0.00019238297262976964
1582 1.8657911950989462e-07 5.6117074665023476e-08 -7.335583647743248e-08 0.00020923107150013992 -0.00021085821069731582 0.000603440965797776
73 -1.1831154381237877e-07 -5.807669656813462e-07 8.314899723124241e-07 0.000331066188315385 -7.207361679367679e-05 -0.000649273027515171
1906 4.3284909319165937e-07 -3.258883918969505e-07 4.768710788537341e-07 0.0006834992828964875 -0.0003973899245233187 0.0009758721336736965
2178 -3.7308384405076397e-08 1.099767172232335e-06 2.820911591439241e-07 0.0007653170046614442 0.0008258047093063874 -0.0008668983549487873
1314 1.4256747058216779e-06 6.230613837682313e-07 -4.940308550752371e-08 0.00019493477786332108 0.0010281268430666936 -0.00027618987039581465
1040 6.937741054190396e-07 1.4444894288002292e-06 2.844560692760356e-07 0.00013310339916669653 -3.5979987144406496e-05 2.149274935710557e-06
940 1.044053689319327e-06 1.997859188662147e-07 9.263615520813994e-08 -0.0002314830422313165 0.00023699485742993687 -0.0013069122512962476
476 4.39567939766386e-07 2.2303492277040581e-07 -7.670231776018521e-08 3.9667668167267796e-05 0.00037929003770447063 -0.00013710817711955892
1001 3.4657608115613464e-07 2.032660409180821e-07 3.1984835663787236e-07 0.00037939709670182034 0.00035078171904128825 0.0005757411715938631
1155 4.534742257345345e-07 4.005900530576745e-07 -1.937447842803848e-07 -0.0006539179899713273 0.00017021740514666122 -0.00023191346684382959
1860 -2.113927560245613e-07 -6.023612900539325e-07 2.770669544693576e-07 0.00012471981202406075 -0.00043903561633005335 -5.346720997397431e-05
1193 2.6709758182181446e-08 -1.577205917300047e-06 2.7671514957322937e-07 -0.0013141049038797932 -0.00020732775131404325 0.00018616826866394839
2041 8.474102450928249e-07 -5.988907702271291e-07 6.563006249786473e-07 0.0003933566424618022 0.0005641109328546903 0.0002448893065083087
1162 8.302896965307068e-07 -3.781312887676632e-07 5.24181474294893e-07 7.794361263866084e-05 -1.8786182182196825e-05 -0.00019498336827823267
1771 -1.215795201875999e-06 1.8017572524929547e-07 1.3820369763252426e-07 -0.00018183610823983352 -0.0008645868258275502 0.0007042796668225663
1449 4.323763529957423e-07 -5.660145943893696e-07 4.3447171566302835e-07 -0.00025467073565278557 0.00036278938030247904 0.0002677950689988189
2117 5.129114834772076e-08 -9.59257214026269e-08 2.292530478702199e-07 0.00014936493576952285 -0.00039909159382641113 -2.221298354396157e-05
1562 -2.8283919470182686e-08 -5.749218838349894e-08 1.2326594249063024e-07 0.00043476228862331963 3.367552648751213e-05 9.397453585799214e-05
349 1.440770631043462e-07 -8.442564530180607e-07 -3.036240258267824e-08 4.403143623970184e-05 -0.000135721084067139 0.00018333300985000302
842 -4.939268314604427e-07 6.396405422440213e-07 -1.1631171348064439e-07 -0.000684469939541145 0.00027970437758127997 0.0011123032378570882
481 -6.578048705489323e-07 6.700424057332193e-07 -5.921598218488389e-07 -5.404644951029956e-05 -0.0002938546933985597 -0.0005668154124636468
1035 6.572682450007442e-07 1.2133363109275334e-06 4.586237318517546e-07 0.00010257514205373599 4.3293640053856514e-05 -0.00028536579369285855
1249 3.139412183342955e-07 2.043506362111077e-08 1.0049862977257233e-07 -0.0006953363062225203 -0.00013094455946845426 0.00019313999038576807
1457 1.470159730289228e-07 5.806145219324444e-08 -2.4373503711726095e-07 -0.00020909211619323168 -0.00020920814989033333 0.00027440942992312285
1437 -1.1229740211924444e-07 -1.7301557187383487e-07 4.829982626796133e-07 -5.8434350289407476e-05 -0.0005684917193549125 -0.00043085528513163803
1751 1.0002090387785467e-06 4.965991359542159e-08 5.043219967269416e-07 0.0002464591582187409 0.0002834471490873401 -0.0004892308929410081
59 1.1617268895565966e-06 -1.2877943614580773e-06 -1.454625232623611e-06 0.0004663034105482725 -0.000783571323261764 -0.0007969088536684995
964 1.1459128513476882e-06 -3.648716720394134e-10 1.3976677576771947e-07 -0.0002947528447977277 -0.0003012927260328678 0.0001679522237512447
1044 -1.0997800774555605e-07 -3.033245913981851e-07 3.3476620993028844e-07 0.00012332208489600118 0.00023431732353605743 -0.000879595716461575
863 -2.540288299510242e-07 2.7957530418022704e-07 -1.0489290955892818e-07 0.00011065163242535943 -2.0229615399951808e-05 -0.00013271222060180147
1284 2.7634025516150607e-07 4.1449808476385706e-07 2.10531863049471e-07 8.8310861029073e-05 0.00037554218942135385 -0.0004575494706053165
2133 1.0168078684320903e-08 5.798867016118772e-07 3.7142803780070184e-07 0.0006249597083325255 0.00011715479224618933 0.000409501118367675
822 5.63752575553559e-07 8.389799279550933e-07 -3.475439260771172e-07 -0.0006689737035533013 0.00019512748466393392 0.0005418600485829396
1052 2.1413674640609784e-06 5.065192367276488e-07 -4.0508397898805097e-07 -0.00105282702700934 -0.0007059486213871135 0.00019715749981405518
1595 4.4316363334393254e-07 7.088190892291799e-07 5.018803488603911e-07 -0.0003369266745470384 -0.00016757822534901542 -0.00010107957772014933
2030 4.952757105394528e-07 3.9723799812685766e-07 1.3536911901682265e-06 0.00019855573397520364 -0.0005860992103127999 0.000441242669159961
993 4.047297621527153e-08 8.223855310486534e-07 7.059798497276548e-07 0.0002425723951065728 0.00013877140972905626 -6.391325552394915e-05
1730 4.375080061278912e-07 2.0714159956072183e-07 -4.8292729660074026e-08 -0.00022995117039296603 8.80762466949778e-05 -0.00018458697614303046
1382 1.5326475305160453e-06 -4.3265119333855387e-07 -1.2993127530550152e-06 0.0007164143020669762 0.0006603971474814383 -0.00011521693462603668
261 7.625947952938358e-07 -1.9352682715810817e-06 2.2150937800699164e-07 4.277928773902246e-05 4.771662537531552e-05 0.0015764692266059645
909 4.995586066792918e-07 3.4925205190828726e-07 4.2760415478186654e-07 0.0004477624486624732 0.0006477453565169088 -0.0007206228040699414
827 1.238397926936767e-07 -1.2624864343735205e-07 -1.9012786008571525e-07 0.00011055736649301782 -0.00033963185553681084 -1.3626987264920325e-05
1507 4.162217563320223e-07 -7.126958917841811e-07 1.546866636520365e-08 0.00023215832795571697 -0.00027072937387263445 0.0001440504391909827
1387 2.7197376320390387e-07 -5.379976507583025e-07 7.432952529319001e-07 -1.6325498753921942e-05 0.00010912938475456887 -0.00024483651294899395
1558 -1.3706999356519046e-07 1.7138612850014523e-07 3.728640350788974e-07 -0.00048083143227390854 0.0002346224614663811 -0.00038405141212774344
295 7.685310890639173e-08 7.264664914021144e-07 1.7473280608894438e-07 -0.0003404811694776082 -6.833800974944948e-05 -0.00010902036951529859
1089 -4.032040679806364e-07 3.613895104268719e-07 -3.3344245668072863e-07 0.00017764528679319936 0.001124982674313845 -0.000512658017662505
1688 1.2111875880025494e-06 4.008523257756329e-07 2.6931245361985487e-07 0.0002065616167599247 0.00014683755683162 -3.0377880968613833e-06
1238 1.0174827724855247e-07 8.380484852910876e-07 8.173986944913632e-07 0.000170155326396565 -0.00038094914608859066 7.725017417456868e-05
2031 -3.726324971195732e-08 7.497224463784868e-07 -1.9479901322742273e-07 -0.0006572194232882207 0.0005099362300167891 -6.285660613293088e-05
1806 1.2108638819993918e-06 -3.468738895771989e-07 2.6336708234037554e-07 -4.794348266764153e-05 0.00034892451336649555 0.00019981723351084692
841 1.3059379112833023e-06 -6.604584880588571e-08 -8.242954785204817e-08 -0.0006593433770170161 0.0004376244246194567 -0.0014610229024067526
1276 1.4959540053133425e-06 -7.122610316833181e-07 -1.0601450592070855e-06 -5.390881635078036e-05 2.921782832418281e-05 0.00042791558506280263
1475 1.1768485956863428e-06 4.248754777539741e-07 2.1086981770438133e-07 -5.642640491139221e-05 9.14459521254348e-05 0.00045793011702843794
1288 1.9802217438475637e-07 4.782097501077646e-08 -1.5998142960425668e-07 0.00043338621457773385 0.0005456048485499757 0.000260263615204985
1566 3.696080323795426e-07 -5.17767646265266e-07 -7.30123368954277e-07 -1.5131587130479402e-05 -5.8563298996292035e-05 -0.0003064636653744664
1867 -1.6332761626519662e-07 2.3115742780004459e-07 -5.861416249265513e-07 -3.686958270468369e-05 7.440131570927275e-05 -0.00016732775724541047
1441 -8.263116334298589e-08 1.1397968302196397e-06 -4.4335804122912025e-07 -0.00020166691475371546 0.0010026242811576192 -0.0007482642848915509
1519 5.715258288080268e-07 7.898854110497802e-07 -7.636127412058719e-07 0.0005545080801062851 0.0007181775116608168 -3.445827329772801e-05
441 9.275676065786828e-07 1.0019952496317774e-06 -7.898375929092364e-07 -0.0001669820065178511 0.00013868922675859823 0.0001435799864937102
388 8.843663073880038e-07 -1.4278100730764598e-07 8.430735844701698e-08 -0.000573041683439207 -0.0001809595416101552 -0.00020610317396386297
1493 5.95637719029029e-07 -3.397682259353739e-07 2.025032865514354e-07 0.0001991114731268521 -0.0003316666824605049 2.0322459082926974e-05
535 3.036832806462442e-07 5.789980902671338e-07 4.415064944176293e-07 4.683459173681543e-05 0.0006042672406789918 0.00020975064629833348
663 1.8276745269358235e-07 9.556652698876155e-07 -2.6234010527870477e-07 -0.00014637516278926728 -0.00016849886431713533 -0.00017313284318103904
871 1.7030537222186076e-07 -2.434793189244594e-07 2.2620202919247919e-07 0.0003104272629830998 -0.000603611395455298 9.929350430046674e-05
1579 -9.08717297703016e-08 2.8695913748576923e-07 -1.6880752268631212e-07 9.379659378938171e-05 -0.0003536112716917313 -0.00010076881283750182
1090 3.977277174400429e-07 -6.592147631294081e-07 -5.900358378330417e-07 -0.00011920565464740754 0.0004544257512895884 -1.4406473034856762e-06
1220 3.910986907719168e-07 -2.416368786102364e-07 -5.047224513099466e-07 0.0004922309858096197 0.00013850969647770023 0.0005160967277740302
1270 6.758691527090901e-07 8.006828853644415e-07 6.244620989035919e-07 0.0009946336070919767 -0.00022526812485511888 -0.00012397553695127063
1211 -4.162611479982026e-07 1.661850902090304e-07 -7.43182826484215e-08 -8.615989903347344e-05 -8.174497756560573e-05 -0.00011583825796809568
1342 -9.251035029183285e-08 -3.229597882977969e-07 -8.28558991342707e-07 -6.819055931841866e-05 4.2829414961444844e-05 0.0003818941166183604
840 1.168506646006677e-07 2.2078888748161012e-07 -1.4587155483918036e-07 -0.0002731588846770422 -0.00010382627856377733 -6.329829762049726e-05
1380 1.196207604508054e-07 1.3359109409308435e-06 -3.820148596585808e-07 -0.00031623397960976567 0.0002946599836309963 0.0003841210770425348
1510 1.0805830876669457e-06 1.0376920426617514e-06 -2.9026720837271313e-07 0.0002768224120233555 7.788890759739162e-05 -8.786229966977415e-06
636 -1.0259238122089755e-07 1.260154767075765e-06 -3.6135502592048193e-07 -0.0003086756563130787 -0.0006372304085634339 -0.00013264911407276963
1572 -3.06306967579035e-07 2.3300575203117895e-07 7.692085258602455e-07 -0.00032646827738125464 0.00020960002716325694 -0.0001835836673437083
2039 8.149979433713683e-07 1.075098824798327e-06 2.608353045714717e-07 0.00015247432799346883 0.0002249861403137126 -0.000103550901964043
681 5.675856239987032e-07 7.589501201262583e-07 4.23158936875637e-07 -0.0004683398727391925 -0.0002659464319473964 9.510932588673298e-05
1800 -3.3184864272180293e-07 -8.91807136937454e-08 8.572336917280937e-07 -0.00017343862796286299 0.000165981829715691 -0.00022835821372648224
1525 1.4333189405909135e-06 -4.020158773583746e-07 -1.1267864881867795e-06 -0.001045231452742182 0.00015213418693407144 -0.0005997510646325987
52 1.133858855230501e-06 -8.298168874306919e-07 -5.615043460199769e-07 0.00021175518225362565 0.00045594927247075086 0.00027043788366187094
298 1.1574344526417907e-06 3.6184590097152877e-07 -4.5569074305902975e-07 -0.00031346346517056005 -0.00031576041910777713 1.7530615235972058e-05
858 -7.586614048601392e-08 -2.490354957093578e-07 8.863851793420614e-07 -0.0003421601348224802 0.0011155511340430876 -4.050702641155836e-05
410 1.576819599414809e-07 5.307637991667274e-07 4.927193652093902e-07 0.0004470486932016067 -7.080188997480853e-05 -0.00015330693873627415
564 1.6374975531944125e-07 5.515595429827357e-07 -2.916574135150079e-07 0.0002406166424021021 0.00027764552282816187 0.00031840594900383776
511 9.509433866329043e-08 1.4577390634882982e-08 -8.65503022753193e-07 0.00018710686025182513 -2.1694807618887127e-05 -0.00041281322874061005
949 -3.7000343096254813e-07 -6.326706873481092e-07 -1.635084368454695e-07 -2.7053997520361597e-05 -2.8835550449698855e-06 -0.0005746665666794194
859 -3.7294752713817494e-07 -1.3657267426528595e-06 -1.5113688062372338e-07 -8.428040708743697e-05 -4.6819360051404476e-05 0.0005651782042579394
1331 1.5472610168290364e-07 8.972398043517239e-07 4.407716862669865e-07 -0.0004810126097211786 0.0005080974474802024 -0.00022419179311503008
149 6.984899692015263e-07 1.304944449140254e-08 -1.768662086451931e-07 -0.00028262784328498896 0.0009073549270271173 -0.0004498317200461332
1383 2.367397984781959e-06 3.4703896652602887e-07 -1.297234369893403e-06 -0.0001544970272479031 0.0005402467583881022 0.0004804153548263734
451 3.720426893918219e-07 -1.1904091861964284e-06 -1.2904001189046631e-06 0.00041097657072955624 -0.0009841881870283004 -5.5758788636602735e-05
1721 3.817238821199418e-07 -3.669523378200486e-07 2.365302033782072e-07 -0.00010218629870897825 -0.0003025042697738073 0.0005423837416088415
72 8.018661378107464e-07 2.5208643246186445e-06 8.320030488735411e-07 0.0015215231293243018 -0.0006246487040924959 0.001194330604961187
171 -1.6986051576231647e-07 1.0396317377538415e-06 -1.0028459549798017e-07 -0.00023067172232528295 -0.0005632870833541668 -0.00019397227667922783
1192 1.9013298563242855e-06 -9.066274099732559e-07 -4.1099163929888454e-07 0.0003136584137590456 -0.00022030962110177314 0.0004336798229407555
1567 -2.8564790256600105e-07 -3.1458791734361075e-07 -1.514231764809001e-07 -0.00023217023783995625 -0.00018949468072927805 -0.0003820160164563176
568 1.228826743148353e-07 -1.710266064897311e-07 -8.841571587722592e-07 6.02242087955728e-05 0.0004907859451777919 0.0002274441220177702
1059 2.811527215215462e-07 -6.919184012400927e-08 5.639613684057319e-07 9.805743056331437e-05 -0.00027996671944981806 -9.22009405291951e-06
1545 4.07688678831936e-07 7.180775559329468e-07 5.22986059384379e-07 -0.00013309969549154299 0.00017091603654985414 0.0002886972638665107
1412 -3.2878065182120367e-07 1.310391986478363e-07 -6.550667717029303e-07 -0.0002760988039496213 -6.698544102124239e-06 -0.000503819052378779
1221 -1.0403382377341167e-07 -7.309465259094856e-07 9.47793594983033e-08 4.968066835375486e-05 -2.5167961622736055e-05 0.0003157864766781723
494 -9.368968196236581e-08 3.549843922262479e-08 2.764427186353204e-07 -8.697153252326696e-05 9.880416855585504e-05 0.00011893952560667058
1131 6.088267859274428e-07 -2.0828039253935357e-06 6.270906649554193e-07 0.0021769688472199045 -0.0010021967745863544 0.00038071322680239243
75 -1.8205128363599354e-07 -1.967404154550038e-06 1.059031049347165e-06 -0.0001866823817334209 6.933085367594546e-05 0.0001020917497058287
631 -9.21732581640285e-08 -6.521595529739331e-07 -3.070205111831254e-07 -0.00046297951148772037 -0.00100414975983325 -0.0013216942329824192
98 2.608473912311938e-06 1.410917831762705e-06 -4.0947468375603945e-07 -0.0006573561162313992 -0.00016877252183015786 -0.0010158421626159301
1951 1.4886812512802414e-06 2.164209061358876e-07 -1.1525143105239032e-06 0.00033712852561948545 -0.0028895767950576526 -0.0002058032837718411
1444 -5.028925386768505e-07 8.758377992675034e-07 -1.1792188980548958e-06 -0.00022381028292154027 -0.0004522770483756149 0.0007005665860942532
1416 7.730541712518362e-07 1.6861756325844316e-07 1.4473524900857037e-07 0.00017451590495392303 0.0007202486898655523 0.0004458558859377228
1039 9.506711090617699e-07 -1.9267813638205732e-07 3.761090030472975e-08 -0.000130726003688203 0.0003183106540730002 -9.766265857314058e-06
1550 6.625652026475927e-07 -2.2393880903960726e-07 -3.585059091198418e-08 0.00012510015313718027 8.031331508249109e-05 -1.1704330654262307e-05
1516 6.806947187143099e-07 2.039022296954111e-07 -2.828575084009197e-07 7.56435374810293e-05 -0.0001046423541717919 -0.00018451445859461176
1824 -2.2220248140349025e-07 5.457557357319471e-07 -6.662653746258687e-07 -9.052561506944707e-05 0.00010407610529506299 2.7518937552956704e-05
2023 -3.600361844539111e-07 -2.8610071741809113e-07 -1.844694537033367e-08 1.7272579732093345e-05 -0.0003211046846331707 0.00016562457798484497
2018 -9.34183982229661e-08 -6.307353848206418e-07 -1.8099085977341025e-08 -0.00036363393459543114 -2.2603949493083716e-05 -6.100010598601355e-07
1854 -4.2103248049552015e-07 1.2446515490983136e-07 -1.9180731474207587e-07 -0.0001369558435268694 -9.263251273839318e-05 0.0001778452125982673
1597 -3.468173326563244e-06 2.274193810135474e-06 1.6777346144775149e-06 -0.0013948189663733075 -0.0007881756203232736 6.00251559719627e-06
109 -3.086156000065024e-08 -7.205219473578325e-07 1.7562002975271509e-06 -0.00038635758782205914 0.0007586394068293001 0.00032694054144047607
1075 1.47466074347252e-07 -9.703369966648542e-07 7.268950561836652e-07 0.00018821608090014826 -0.00012499094107461375 -0.0008023290267185182
216 3.6994997469429217e-07 -1.1907541956106759e-06 -1.5132621526059622e-07 -0.00045584638462156137 -0.0004831403130073993 0.0003703882346091353
2065 1.7074104432765787e-06 3.476167830144923e-07 7.28405009299882e-07 0.000642619796349469 0.0003247510073651098 0.0003756504743318951
1473 1.9755014303722886e-06 -1.5940302388912295e-06 4.150355289387328e-08 0.0003897975261302083 6.844780498335577e-05 -4.974532967373513e-05
1234 -4.4778927415440196e-07 3.2534591621443697e-07 -1.9149507448790393e-06 -0.00013824244938704248 0.00028511314514702903 -0.00020102496172189324
892 7.053921695119045e-07 -6.632274059691241e-07 -5.41771851980427e-07 0.0006536948184193526 -0.0005680450408541413 0.0004624471156709607
2136 -6.936754052352008e-07 -5.250252974503425e-07 -5.807167810616602e-07 0.0007741842999535821 -0.0004011424144070073 0.0002006939386730798
1183 -3.707139729459501e-07 -2.3710838306007573e-07 -1.7265084385105526e-07 -3.9635461329769934e-05 6.570266034676287e-05 -0.00015980407549774615
1574 3.8163182924436787e-07 -5.499077435098802e-07 4.791948494908928e-07 -0.00030644628564548316 0.00022937448244523168 -0.00030436918401243336
1490 2.455236384516596e-06 -7.565351899769169e-07 1.8933572063515328e-07 0.0009650339727331984 0.0005460993866481813 0.0019376265090698854
1086 -3.716606417945723e-07 2.4288929673102433e-07 9.045018587081311e-07 0.0007984153508328759 -0.0017590002422121472 0.0005736582647693233
893 -6.23614383549199e-07 -1.7780665760437505e-07 -1.9041830645659303e-07 0.0001671224476602348 -0.000296781007578507 -2.9551104753507567e-05
972 -2.5011708471657995e-07 -2.001761500166028e-07 1.2194205390405882e-09 0.00021269032106750356 0.00020884710220380338 -0.000161320979396425
371 -2.133745344002415e-07 -7.361292489852544e-08 -9.354756102375625e-07 -0.0002147982222051487 0.0003589464110454076 0.000476942553914597
2101 -2.2277546719305586e-07 1.5479319767604365e-07 -1.038842007962286e-06 0.0004881075486633659 0.00028404517665173417 -0.000178725832455241
814 3.200822419170084e-07 -7.922082016741803e-08 -9.31618493146242e-08 -0.000671560602812084 0.00023008316133927775 -0.00016855864955318814
1758 7.153415211174162e-07 -9.287782769526869e-08 -1.754440408579745e-08 -0.00027533977878400743 -0.0002329384239427552 0.000246304912048811
1016 5.48856974208426e-07 -1.1331383486653358e-07 2.3142608758125296e-07 -3.893389792835563e-05 -0.00035768068287788724 0.00013552867563157366
1282 -9.038001994977799e-08 2.906286817608337e-08 5.269135571258707e-07 -6.619002336026968e-06 -0.00018929456447989767 8.262706603151884e-05
1741 -1.1914844512402677e-07 2.5576977432753024e-08 2.877503482647269e-07 -5.131395609909585e-05 0.0005715043317800787 -4.1133105638939396e-05
1537 9.350303323834913e-08 -6.558465858456113e-08 2.899883567207339e-07 9.067985214995538e-06 -0.0002729189010956588 2.9882242140074694e-05
1599 2.5038125029542255e-08 1.8476519448159386e-07 1.6275358991084922e-07 -0.00010837851011920539 0.00018828551732521124 2.4097666806943547e-05
1557 -1.3571161671233274e-07 6.07810844532191e-08 -1.3150562820347865e-08 -5.669577374871382e-05 -2.8581939977478837e-06 0.0001153392498408412
277 -8.697265570424901e-08 8.603139361017885e-08 -9.894851840814107e-08 -3.844605198741882e-06 0.00019590401610435537 -9.295329508088582e-05
242 2.1364652702758372e-07 -4.410462838434711e-08 -2.607855492707384e-08 -4.875794539542658e-06 -1.7760375463735114e-05 -3.899206299029835e-05
30 3.5446289603630196e-07 3.3174373312981506e-08 -2.0462059410669383e-07 -8.8172003440044e-05 1.9140907860463438e-05 2.1316103636676183e-05
1543 6.457439750444584e-07 -2.7090489173113224e-07 -2.5934029899352434e-07 0.00025265537105916263 0.0001990899114152508 0.00017606102880303302
1202 1.1202916209323802e-07 2.1999248722865226e-08 3.1955899732253495e-07 0.00011763398093367544 0.00023642851262032388 0.00011637830295091936
937 1.3352795657136928e-07 2.761484335718019e-07 8.065115659085647e-09 -0.0002996139462112063 7.359222780058966e-06 1.683248099135092e-07
2029 1.827038815908e-07 -5.800194277032129e-09 1.254150062003934e-07 0.00011740847375845643 -4.974729643815611e-05 -5.325869238519007e-05
182 2.4095135677282673e-08 -2.078215575603916e-07 2.3494233932205286e-07 7.080584988477835e-05 6.591098172487652e-05 5.580057855146527e-05
1679 1.9581854967386995e-07 -1.1536863902139033e-07 -1.6258826991087781e-07 -0.0001241927686750093 8.771807179034352e-05 -5.938031165621533e-05
357 5.9150938589421004e-08 1.15378853759531e-07 -3.258550297108736e-07 6.113312687034456e-05 -9.686743231803465e-05 0.00020323656363182635
1532 8.786397631611582e-08 -2.8801022346400852e-08 -1.1288297188501161e-07 -8.519726966255554e-05 -5.883864314302333e-05 -3.266779716021456e-05
2147 -2.4340707412836783e-08 8.44870327622266e-08 1.342661099609229e-07 -0.00012103740088845626 2.6256873202619316e-05 5.4913705876012695e-06
346 -2.4510462246200965e-07 4.3919405617332735e-07 2.285339429191426e-07 -0.00020019750010925817 -0.00016710574077385916 0.0005071120443633861
946 -3.6877207622124453e-07 2.5664238421831207e-07 -3.695417877745778e-07 -3.545611146230562e-05 9.36511398730679e-05 -0.00013634136122165063
263 3.302661014246157e-07 -6.256867531885702e-08 8.086933881011258e-08 2.3434961489702444e-05 8.638937275409914e-05 -7.888922927154737e-05
230 3.475584093224466e-07 -2.672257686260793e-07 3.185322742544208e-07 -1.757571389444453e-05 -0.0001138089322461873 -0.00019411629038433538
883 8.941248965169304e-07 -1.6854421414779198e-08 1.5501978337512167e-07 2.6302803687806447e-05 1.7409530310883394e-05 -0.00021867149599843
1097 8.799655247294496e-07 1.0678616749506958e-07 2.2263452978535852e-08 0.00013983500590648138 8.81325642611992e-05 0.00012855395476325668
682 1.0668877429281238e-06 -1.4811193563752432e-06 4.4344107213848753e-07 0.0005579955757369145 6.082879090399887e-05 -0.00048793699842601034
692 3.907674180090212e-07 1.177459823123905e-07 3.792489669627572e-08 5.275756598928023e-06 0.0001022159711286176 -0.0001664249030972575
603 2.32683541264157e-07 7.823700694381591e-08 2.099754995750099e-07 -0.00012240583238606507 -0.00022487283181349526 -0.0001474706041320838
1778 2.556129975443729e-07 9.162321724071887e-09 1.2464662881984675e-07 -0.00031687758175523575 0.00029623431762054194 0.0001475346410004181
1170 1.404218349422343e-07 -2.4911968943791464e-07 2.2318057828324435e-08 0.00012756880970713088 0.00022921376691330798 -0.00020546331143015415
1514 2.401278125674319e-07 -2.930508850919576e-07 -5.857989450887028e-08 0.000119298043414919 -2.6926784136127167e-05 0.00018168982764969386
1095 -1.5495614567078913e-07 6.198874694297414e-08 -6.135021307044096e-07 3.7358232120131313e-05 7.984442635351222e-06 -0.00013964231871135471
14 4.937803335285333e-07 2.562455437681275e-07 -5.803477066563819e-07 0.0001174079844509915 1.8325189778657136e-05 -0.00010802685616872264
660 6.421702971364705e-07 -1.5323636914057366e-08 -5.84584144826492e-07 0.00010972495784757402 5.310056141522779e-05 -0.00015311353801718215
389 1.212526908382382e-07 1.1598906863485292e-07 3.756408432182641e-07 2.9143163487964225e-06 8.710525438284438e-05 0.00016035778348789083
1265 -1.9830550626337654e-07 3.324226975069055e-07 -6.932824319739252e-09 -0.0003613262680811338 -0.0001777365322168067 0.00015351173313979654
778 -1.42027713936574e-08 4.3738131407188834e-07 -3.5013206326081356e-07 0.0001793194738523729 7.538235879036931e-05 7.622964063526023e-05
528 2.8662041324114014e-07 -3.330546383213696e-08 -1.1337403809469168e-07 4.8927519018960217e-05 -0.0001362088453304608 4.609772214781283e-05
432 8.796973294091089e-07 -1.5400196623010453e-07 2.5553736698536634e-07 8.545356200668554e-05 -0.0001450691250278771 0.00010364013178652426
687 9.792475605880048e-07 3.343945543112579e-07 3.991031021516104e-07 -6.600803876606186e-05 9.843547762871593e-05 2.159711094457956e-06
1105 6.490555444126911e-07 -1.7065415475841994e-08 2.8032712288178545e-07 8.949183908011714e-05 -9.594492812801363e-05 8.060936735239082e-05
1466 7.309181949804522e-07 1.5764409901016553e-07 4.327489984801604e-07 -7.808490840174522e-05 3.6371131471210974e-05 1.7225817135128803e-05
61 9.677565972818992e-07 5.224512902604166e-08 2.1990493447435517e-09 3.043729646655061e-05 6.642254287172748e-05 -7.899851617172177e-05
595 4.887656031213837e-07 6.224382822626319e-07 -2.0064729365727127e-07 -5.4304341171395125e-05 -0.00026814094771034525 1.558655002030807e-05
1613 4.1567527924960663e-07 -3.724473279469985e-07 -1.0539015790012463e-07 0.0001690613577526621 -0.00020623263425449922 -0.00044586189002998594
1596 -1.7364317006922472e-07 3.06613956280003e-07 -1.6069847803033097e-07 3.6007044465176376e-05 2.658167797645437e-05 0.00019292232479921047
218 -7.074611358206845e-08 3.976000837486266e-08 -4.84825247785696e-07 -8.066296939938017e-05 -0.00026230523520534885 0.0002923409040286369
1569 1.822170868524086e-07 4.400160023903372e-07 2.0098260512468366e-07 -0.00012360936239649265 -4.722779554423481e-05 -0.00013095978624171753
1413 9.181716756676731e-08 1.524775832855206e-07 1.8214128246874386e-07 -6.088638777099419e-05 -4.0245866622801595e-05 -4.058491571401611e-05
1352 -3.165955318040944e-08 -1.1017199830298042e-07 6.759066361315063e-08 0.0002596707267350892 2.608464206872632e-06 4.5722658457875254e-05
334 5.500524648899099e-07 -1.833134243947519e-07 -3.8900929335568804e-08 -9.658467338588031e-05 2.284686916531753e-05 -3.287977603586089e-05
1429 6.136944555571264e-07 1.5777842116484658e-07 -6.33555167628706e-09 9.547637589467947e-05 -0.00014523719989606015 -0.0001015148478268211
694 5.89309765847551e-07 4.1607413340889934e-07 2.349659370565373e-07 -0.00036489140254009116 -2.2905430620181506e-05 5.51552114701586e-05
1744 8.125379349740871e-07 7.131523950016742e-07 -1.8561371102455164e-07 -6.882118718350087e-05 9.07750555071564e-06 0.00035792494232860715
1217 1.6722832639500268e-07 -3.9851125624875e-07 2.1793009132635293e-07 -6.002018075493307e-05 8.909624289585629e-05 0.00045728712160385656
1324 -6.654025788703066e-08 3.9804577299924086e-07 -2.984590199763201e-07 -0.00015417038930824083 0.00017067117732396297 -0.0001436357635415072
780 -1.967373235045949e-07 4.61570426763055e-07 2.586973205958167e-07 0.00027390226335645944 -0.00015451697467937627 -4.243727916298994e-05
1285 -1.1888061455849716e-07 1.965915855920347e-07 -5.470687610016477e-07 -4.7613835080822654e-05 0.00014824501391925114 -0.00022390337846471718
1080 1.4085357478020243e-07 -2.484714477488999e-07 -3.289663007014604e-07 2.749729653470231e-05 -0.0001085595962113378 4.6747338156167826e-05
1113 1.5289025036335842e-07 1.6506750254571275e-07 -8.042799685602442e-08 0.00016755685255382769 -0.0001483252965848658 0.00015436988462855347
807 3.544273157608247e-07 -1.0789104981022654e-07 -8.972406179888861e-08 -0.00011612170436032397 -4.524539915334942e-06 8.329747474815057e-05
532 -7.082386138449507e-08 2.474683319589418e-07 1.4534175594681196e-07 -0.00010092128225348467 4.267415381950293e-05 -4.935188045679812e-07
1522 -4.0761781670024394e-08 -1.5659818178120703e-08 2.845177835815592e-07 -0.00015298290233795928 -0.00012729894306341298 3.111355693534848e-05
1146 -4.66256544144505e-08 4.73777357524962e-07 -1.3175405119307068e-07 3.193994092906981e-05 -0.00015682750067743534 -0.00015751677851197287
183 2.3320484668359074e-07 2.1217660936939694e-07 4.874355381781693e-08 -7.538311040372266e-06 7.720760095713411e-05 0.00012197269335453911
53 1.0499736838707944e-07 -2.0533204094791978e-08 -7.130640334899271e-08 0.00010649534813312141 6.841245956143437e-06 7.475623074889204e-05
1047 2.3744117266754251e-07 -1.182771154551732e-07 4.150826016130543e-08 3.285212537312603e-05 2.6546931172333003e-05 1.847113732776955e-05
344 6.43348396644853e-07 4.3830567179103494e-07 3.2672315387165324e-07 7.89946597047423e-05 2.7359674886494207e-05 0.00021063299854355398
1666 5.395004636363373e-07 4.472383838998571e-07 3.6000413664292564e-08 -0.00013708619932506662 0.00017793647837805853 -3.43570301068035e-05
902 4.837906049238204e-07 2.0427953058874424e-07 1.4372923521886477e-07 0.0003093166692695457 -0.00013951557312968715 -0.00018415173037380204
596 3.926086349051078e-07 1.0378069644543519e-07 -1.0989553509217145e-07 -1.6777476872552716e-05 0.00021301688467282112 0.00024337514691940765
817 5.717872985139892e-07 5.563006923303927e-07 1.149534012099341e-07 0.00014470191309435998 -9.621973490549878e-05 0.0004272681899064665
1577 -4.56645878904307e-08 4.7971667371730915e-08 2.418161983936396e-07 5.337582337851072e-05 9.032368954452716e-05 -0.0002184753871866243
1321 -5.510571896595567e-08 -4.265143372767194e-07 -1.2216585743164266e-07 -0.00028623078226071275 7.234461520644088e-06 0.0001299490852831486
1717 2.9989932581858266e-07 -2.1971399372480586e-07 9.193415351266327e-08 -0.00019056314148254328 0.0003908261539553563 -4.382691410903607e-05
851 5.92827870884807e-07 -4.943658102995499e-07 -5.6416668457785316e-09 -8.583327737104093e-05 -0.00022071128356076185 -8.97442853517171e-05
127 -1.1590175546781575e-07 8.855201829405798e-09 3.2711560293715494e-07 -4.066827729771932e-05 0.00010354721718459826 0.00010380429632883105
166 6.476424193611959e-09 3.302375267115484e-07 -1.1692624196224626e-07 -0.00011236710929787569 -0.00024356919163946123 -0.00018462200164985927
375 -5.108957185342712e-07 -4.2927871943874994e-07 1.3694275953157354e-07 9.293033865765288e-05 4.300003839759086e-05 0.0002907466949527294
979 5.487595902426312e-08 -2.775778982270823e-07 3.1749745617057366e-07 -0.00016405613274660395 0.00012051292720229767 0.0001317404867489586
1576 1.3260809921011154e-06 9.258190515124122e-07 -2.1400968837143785e-07 0.0002624761431187141 0.00022849756982195915 -0.0005638322354199459
978 2.1585695571895224e-07 9.310010377261757e-07 3.045079694516661e-07 -0.000461803512946186 0.00014529018863883032 -0.00016171595094265694
924 5.119649642413282e-07 -2.1992514039865183e-08 5.7015210268598825e-08 9.77482375670675e-05 9.170865758151386e-05 -0.00017005203243666126
193 1.605379669640081e-07 6.087239010786469e-08 1.36712812705805e-07 3.2698511080451876e-05 -0.00012067363042558371 -0.00014486464330064303
431 1.5973315706614894e-07 1.0994694016672215e-07 5.109846672072238e-07 0.00023070780900150625 3.06644675722985e-05 0.00012624390684245465
1409 -1.379599323910407e-07 3.564117844431287e-08 7.296950250366329e-08 2.492052340319079e-05 -5.108203503965264e-05 -0.00036258417953515844
111 3.995079797952982e-07 -7.767186149323378e-07 1.26148640722591e-08 8.933616185824171e-05 -6.200058113594221e-05 -0.0003618053917832169
1173 1.8756038925025155e-08 -9.386664077771486e-07 4.825870161504559e-07 0.0003329145936145557 -1.7159324271354636e-06 -1.1358660270186306e-06
90 -2.1429870734109956e-07 -6.97541368957364e-07 3.158254924891453e-07 0.00014110129479843556 -8.239974796532636e-05 -9.968764496064926e-05
1053 -5.446775895846265e-08 -4.084409964767506e-07 3.5607693519289566e-07 0.00020730433302753934 -0.0002614550923701403 0.00042061470795104445
1427 -1.847558527968268e-07 9.998070300949132e-08 2.760191621513395e-07 7.037099358610558e-05 -0.00018037018956596217 -0.000156490065826485
1520 -3.4147632034732266e-08 -1.6503988646877684e-07 1.3308966706441822e-07 6.332286715361669e-06 0.00011814375677901592 0.00013377639898666543
345 -1.6123301966459628e-06 4.4446277119436345e-07 4.408097955100776e-08 -0.00010424786335881785 -0.0006716606023304262 -0.0003332894989683827
392 4.9687198361551054e-08 5.372898539129999e-07 2.7671886582038155e-07 -7.515730977448846e-05 -0.00030787050396098294 2.439650973028087e-05
1240 6.014544330042971e-07 3.395755115910352e-07 -2.4119785595915297e-07 -0.00011638412747647015 -8.562323855873279e-05 -2.302840541449441e-06
786 6.595911382293968e-07 -6.194710900526324e-07 -3.04376820888377e-07 -0.0001702479814152636 -0.00045918968868840544 0.0001683874836330227
391 7.160611399454679e-07 -6.850528744053566e-07 -4.3380324500081564e-07 0.00028286771045846724 0.00018358340315946154 -0.00031273118403290096
1384 4.2232389975605843e-07 -1.9138053984625048e-07 -4.744672358263984e-07 -0.00014335849192825722 5.0818476118020864e-05 -0.00021835898022875611
1237 4.951775030598828e-07 -1.2785786116588246e-07 -2.611738071978014e-07 0.0003206208027912947 0.00017499925182332398 -0.0002666306853368608
319 1.2019213947037183e-06 2.4338968786858807e-07 2.3185256038391787e-07 -0.00022969555168031883 0.00030257599927878496 0.0002465274520591057
1445 -6.103526954218006e-08 2.6585914164488407e-07 4.5245228408648014e-07 -0.00035607339360531126 5.348055587055966e-07 0.0002691413460685893
146 2.2442278243667473e-08 1.1525156779830338e-07 1.6165769048406344e-07 -0.00014949508760058876 -4.7849265614958585e-05 0.00014739495232992812
394 5.183233026699752e-07 -6.670684806218889e-08 -2.660934879220695e-08 -0.00011337022909277805 -0.00021981791260719508 -0.0002552720425182978
770 7.189955384256774e-07 -5.345858464373857e-07 -1.4404057734825602e-09 -0.0001761148775663725 4.110385310812141e-05 -2.476882223885949e-05
764 2.459253963857898e-07 -2.2163864914839394e-07 3.15403043757973e-07 8.540399681775477e-05 -0.00013080965238085383 -0.00025524675157804734
35 7.250395712365126e-08 -7.866795735278258e-07 1.7023899420729072e-07 -0.0001555380817303376 0.00017952273028389224 0.00023707300273606013
1381 1.1011825166878973e-07 -9.658444365375578e-08 4.4725122038067727e-07 -0.000142382673066141 -2.2535554444638967e-05 -9.283933126722953e-05
1103 -2.2048503797438626e-07 -3.156574218084416e-07 -4.9398460978717504e-08 0.0001027231836956158 -0.00015374790925364707 0.0001602948945731767
448 -1.0398437716498715e-07 1.5915696985026604e-09 1.1203108329817249e-07 -9.534942849126226e-05 8.850443534373477e-05 -0.00014143409804933803
1247 -5.61388344047397e-09 -2.7013869552956033e-07 -2.5956623765892657e-07 1.9347233554386754e-06 -0.00010979972855107618 0.00018973967036572858
140 -2.6529707219466332e-08 4.127969935791828e-07 4.944650261213707e-07 2.8739280855670406e-05 -0.00015766204003976996 -3.4507096410010285e-05
1268 -3.0750304498966967e-09 -3.4729543888301937e-07 -4.017114643745111e-07 0.00025517584282047515 0.0002024580186680736 3.1729904512701095e-05
350 -2.0204699692594854e-07 4.821538228732425e-07 -8.654186394594083e-08 0.00011483074748381779 -2.6032798650001497e-05 -0.0002502699103214081
1174 4.524759222971927e-07 -2.2037360306466665e-07 1.2180387207933858e-08 0.00019708781625894895 4.017201288179606e-05 -0.0003240997405320583
838 7.895025945302206e-08 3.820315401828888e-07 -1.8240033239162934e-07 -0.00036724489306198273 -5.928432697936782e-05 0.00024400508653047473
669 2.2600765956974676e-07 -3.681383827970918e-07 -1.0454818521105238e-07 2.8900054990228115e-05 -0.00014368385987604764 -0.00022110632832339407
1274 -6.84499133957301e-07 -3.922709578512311e-07 6.092404224186551e-08 -0.00014582255374832423 -0.0003890941300473621 -0.00017533230502955795
323 -1.6074508077368633e-07 5.9717934066691e-07 -2.335255579403164e-08 -1.1491626992925114e-05 -0.00022907925108453327 -0.00012129426961975718
1058 9.994746284584985e-07 -8.755986028184569e-07 -6.01156018701936e-07 0.001193439498119057 0.0006933645862780475 0.0007997491134573093
42 7.266696965031993e-07 8.12671977226362e-07 -7.429034560576927e-07 0.00026392177474135714 -0.00048265700050604025 -0.0008206669526837549
645 1.8110427065400778e-07 -5.227564556745179e-07 -8.728614338628942e-08 9.460943755906586e-05 0.0001475684227385862 0.00022662918498034582
1487 9.542967982414435e-08 -4.657208089166228e-07 -1.2668597000152098e-07 -0.00012128175259847022 -8.475890013931999e-05 -9.337402984915329e-05
1853 1.21997822469706e-07 2.8460166338506265e-07 -4.029276222864084e-07 3.0650987203192795e-05 -2.129949950223882e-05 0.00018125695559600922
438 -3.494687195302886e-08 5.598016511095782e-07 -3.4689277884070023e-07 -0.0001025597287033519 0.00010088167063775897 -5.333929194622014e-06
131 -2.2787626221649058e-07 -4.493373662993025e-07 4.3289803376800576e-07 0.00016938330135014997 -0.0002880399999838867 0.0001097092256821048
891 6.997687941089536e-07 -4.4367622909114497e-07 2.2634153544816406e-07 4.9613438061141006e-05 0.0007589050621716278 0.0003234608711904871
642 1.06019268335821e-06 -4.953270458867127e-07 2.4169571004696237e-07 0.0002973201266419969 0.0005847544954108204 -0.0001966993969014421
1403 -3.3478687358779474e-07 4.029328846848689e-07 -4.4216038736538763e-07 0.00020781455682789175 -0.000963276021301579 -0.00016950675340511367
1087 9.057439017178026e-07 -8.673501586403185e-07 6.793803474949831e-07 2.162703251277514e-05 -9.889093209584579e-05 0.00016845375003482962
275 9.641323105807543e-08 1.8746208660535985e-07 2.9344027161933436e-08 0.00019861449459921866 0.0001572860415493418 -0.00027929560569504933
1706 -2.1570231263718874e-07 -4.891972789342883e-07 2.4648918519922314e-07 0.00019790479485021063 0.00016477086057017324 0.00010894073561838584
969 3.205030894828531e-08 -2.0708686975810114e-07 -1.360086583839137e-07 -0.00021064151136838128 -4.240316278701259e-05 4.736597763159468e-05
434 -5.197918105625529e-07 -9.284776711061274e-07 5.235466271342804e-07 0.00033509340987377095 0.0002049951597967765 0.0008952071733403612
269 2.3556714658433233e-07 -3.266775725582308e-07 3.779341193911805e-07 0.00020237498441116308 1.8386311023693528e-05 0.00018730099910070484
1899 -1.7696664545087186e-07 -2.6987751974082537e-07 -2.852273754791635e-07 -4.259908435820114e-05 0.00033971909249331026 -0.00015725882360934074
1593 -4.1796775705427014e-07 -9.010403837145161e-07 -1.7724739100513102e-07 -0.0001100244900309241 -0.0002393450427724308 0.00023208498010139522
905 1.6617723005125254e-07 -9.93185694123975e-08 -7.994755996470934e-07 -8.503484841018768e-05 4.126823804018215e-05 0.0002001009243792174
291 5.68775091721991e-07 2.6527832178124676e-07 -4.535639817891795e-07 0.0003013385389942213 0.00016413794110436386 -0.0006447891279519687
207 4.1200240148700886e-07 -7.438022147776604e-07 3.7668349299109326e-07 0.0002508360119817367 -0.00034867308919859407 -0.0003361420134097994
1504 9.773072643147075e-07 -4.6045501471917036e-07 3.4256305565139145e-07 -7.324004839155992e-05 -0.00031770238101717745 -0.0003217906889765994
1659 1.6836218848567e-07 -8.731166315108423e-07 4.880752169129212e-07 -6.064680939527418e-05 0.00011225745919333985 0.0003588991844908438
1790 1.1357799511276877e-06 -5.655778323587772e-07 2.8472790041430006e-07 -0.0004267154790834353 0.0003539277456857678 -0.00011312751850551858
340 8.474283133888602e-07 -8.385146606774341e-07 4.788464995374624e-07 8.318295340620017e-05 -1.1382851350895669e-05 3.5298914332420615e-05
992 7.54763540485868e-07 3.488867384722952e-07 5.757914413706843e-08 -0.00018386037583917005 0.0004554881462982223 -0.00023591800450041198
703 2.0011815828581235e-07 4.894641109165128e-08 4.018075898251613e-07 0.0001381456181778953 -0.00021447645554745852 -0.00030773774754402184
1711 5.60256730296396e-07 8.636954877163235e-08 1.2587144614461622e-07 -0.0001751554396676934 -7.149878700224202e-05 -0.00031124263651753485
155 5.565729830073257e-07 2.448600577398863e-07 -2.0331835962045568e-07 0.00011374265745495637 8.171323165474035e-05 0.00036888991453708935
1175 3.665467673740957e-07 -1.700883311502536e-08 3.5785077414103516e-07 0.00014760235885190505 5.1227303676617174e-05 -0.0001962847257940448
1502 -8.465288706098139e-08 1.257524922380584e-07 -1.039810400370567e-07 0.00025266906420398725 -2.6783971320879706e-05 3.7412901935013214e-05
2144 -9.294642248532673e-08 -3.260290454968212e-09 -1.1989712567591594e-07 -0.00015934650304494691 -0.00015963522763337348 2.3293834779660418e-05
402 -6.608935370092711e-08 -1.1919428882545415e-07 7.994983975951134e-07 -7.727812584483277e-05 0.00043704053837716346 -0.00019167886032153285
510 6.995385345398936e-07 -9.608276078412886e-08 8.011916104838811e-08 -0.0005466983070655658 0.00040086936228699217 -0.0004234487645974732
282 3.08596351063747e-07 -6.058362684640469e-07 4.90379782603481e-07 3.988239798044126e-05 -0.00022117515873905548 -0.0003384985237778058
1724 -2.082019002607539e-07 -8.98585460208074e-08 -2.927587692535269e-07 -5.210555434836813e-06 -2.4619212985384777e-05 0.0002910297979128014
867 -7.912866776677641e-07 -5.600899125825896e-07 1.9905236454449588e-07 -0.0005994169946429669 0.00021966240999232202 -0.0003639029826939529
1014 9.392380002950743e-07 -4.746536998001549e-07 -2.745889916361055e-07 0.0003658552938692205 0.00017001366826897466 0.0011742532273054324
901 1.0878448635881858e-06 -6.986952805699348e-07 6.318010870955811e-07 -1.4039188908156783e-06 0.0008293431280093824 -2.6788317732078998e-05
1805 -7.594360603680504e-07 4.842239522441747e-07 -7.07724256340247e-07 0.00019436786428298012 -0.00031588447022059895 0.00010308264991574821
729 -1.0402090065812316e-07 -2.5783700583336615e-07 -9.557677925935222e-07 0.0004139467506727221 0.001169717533392952 0.0005248701433611535
590 -2.8009887570672213e-08 3.169442133106225e-07 -2.1469080534420413e-07 0.0004342041959994875 6.649003709707528e-05 -3.085196914226358e-05
973 -1.3972288221190362e-07 4.767176378938865e-08 -3.1014076787701805e-07 0.00016464915993801368 -3.135005343306375e-05 6.5641248088047e-05
2100 -8.520815571109359e-08 -5.575476060179583e-07 -1.1352718183087695e-07 5.8635121910836444e-05 -0.00013498074567316667 -9.371309147834904e-05
695 2.563438874106424e-07 -1.2127029914871434e-07 -8.533991325110395e-09 -3.174668735054979e-05 0.00039474205953103956 0.00037079808734174217
48 6.818734399598168e-08 -9.025444252705408e-07 -1.4753672821540998e-07 -0.0002510401396926092 -0.0001418925861036199 -0.00031117461606685275
202 4.560535038976209e-07 -2.300841039070029e-07 1.0478725366408533e-07 0.0007938001209884365 0.000215705305201358 0.0004516376839102657
270 -3.5946412863352057e-07 -5.287626790080868e-07 2.5900123245389676e-08 -1.6303678848606783e-06 4.616224069868876e-06 -0.00010614233162212939
464 -1.537805626041693e-07 1.298050107510338e-07 1.564213719491862e-07 0.00023913628895106656 0.00013246538948762383 -0.0002067178798773938
646 5.005668712387042e-07 -1.2247371693340303e-06 1.7279596513314768e-08 0.0008227530538408971 0.00021457136000378 -0.0002645225834420195
1302 2.0486252675723647e-07 -7.916468855072059e-07 3.202181270469402e-07 -6.153845067294653e-05 0.0006817743039546358 -0.000736584185731732
811 6.12510183871184e-07 4.313882747237859e-07 2.477679856789982e-07 0.0006275166360259685 0.0002642251471989431 0.00020618487959680803
258 1.291006306446061e-06 -1.4822221606933608e-07 5.26906381888679e-07 0.000197171852936236 -0.0005827725043941094 -0.00020587383068957767
820 1.2962081467106184e-06 -5.558772400323154e-07 2.9312109043192947e-07 -0.0002046456386418526 0.0003577571738491423 0.000209566067486039
1224 4.4752095397959915e-07 2.0973844427620883e-07 4.0721920624180175e-07 0.00034277160738994055 -0.00015810324830845123 0.0002749873717326343
529 -3.1997699329095305e-07 -2.008632018042071e-06 -5.349092590271809e-07 0.0009292246933366098 -6.253059960385962e-05 -0.0003843494844672959
504 9.909048444716917e-08 -3.152853846725297e-08 -2.3504125414748523e-07 -0.00016061280619639678 9.734797163542366e-05 0.0004578093744254531
1145 -1.3271314602477757e-07 2.1276839997775979e-07 2.2768026323520182e-07 0.00016923323660215705 0.0002699264807573104 -0.00017179888076012783
1470 -1.54970153961659e-07 -4.796297378369482e-07 4.566788405588916e-07 0.00010344611039493748 0.0001663998101326077 0.0002410781921925708
177 -1.6226851775245915e-07 4.490306323655688e-08 -3.53871970705131e-07 0.0002741550325011534 5.615129995681492e-05 0.00021796013329805267
1177 -5.756301972184049e-07 -3.0633193067290365e-07 1.3754964803633528e-07 0.0005749761254679145 0.00015637986226292624 0.00035186095580880006
1468 -9.296587170272384e-07 -7.265162634550051e-07 -1.9565986816373024e-07 0.00039505650556909713 0.0013633887355295907 0.0005059523936969026
1010 -1.5679349121687273e-06 5.03965627160481e-07 -1.7117365670289792e-06 0.00014481456517689755 -0.001020849751428831 0.00035780816916227185
1884 3.605880509718166e-07 -4.5998971485380736e-07 3.8943055868695343e-07 -0.00019978636447846236 0.00018313158819671226 0.0003499199397575405
1640 1.1279981046709085e-06 4.432413678825389e-07 -3.351165245913244e-07 0.0005829557744890926 -0.0011858457773901827 -0.001274761031628982
1935 1.8155081481370454e-08 -3.1405945040539713e-06 1.5992919061652182e-06 0.0009287817810966539 0.00025662957938575137 0.0015985962167112983
259 -5.244989797580255e-07 -1.5194111856335981e-07 -4.7203685097458324e-07 0.00028928440438458745 0.0004197809067021748 -0.0003344051030408868
847 4.986298298131745e-07 1.0885998095778885e-07 -4.325162792449285e-07 -0.00012616050003383083 0.0002188118859403719 -0.00037991777038697103
311 2.452467336523231e-07 -2.5671557415133724e-08 5.784454923407567e-07 9.125582868916428e-05 -0.0003656908247880351 0.00012109416752990712
917 -8.983203864175538e-07 2.829230310734777e-07 5.824322249122016e-07 0.0001676533274028757 -8.094487121628154e-06 -8.878537912229259e-05
142 -3.3931521474856955e-07 -3.676949974325043e-07 -2.6318297463750224e-07 5.69028525864092e-05 -0.0008106217393950963 -0.00042256813042381824
960 -3.3512080007587355e-07 -1.3319429409511378e-07 -6.076336228165433e-08 -2.1624309467476945e-05 -6.973668124163257e-05 -4.9304246897143695e-05
1206 -1.5272477831656655e-07 -1.731618515960681e-08 1.3360558474370182e-07 0.0002093504585243987 -3.11516021211949e-05 6.32302523705203e-05
1521 -1.8022559428971912e-07 -1.552146770661781e-06 8.329709885286177e-08 0.00023405179898583614 8.073944527206198e-05 0.0004748397979898391
796 -3.22833363912401e-07 -6.657829677222825e-07 -1.4180583169608282e-07 -1.030893476699907e-05 3.0091702625719434e-05 0.0002745547579352607
69 -1.1858793160731113e-06 -6.170619582284727e-07 5.261578310819317e-07 8.423154365217073e-05 -0.0003628005645279968 -3.006107095201593e-06
514 -3.228523393280329e-07 1.3656424021396844e-07 2.235817922865328e-07 0.000299316299542192 -0.0014336065467114253 -0.0005536562688141894
1888 8.598507997178246e-07 3.3082495045744496e-07 -4.97194056867501e-08 0.00017792727580308732 -0.00027707416659578245 6.987510197609291e-05
1310 2.49407748338509e-07 -2.430203168578801e-07 2.3318190415026362e-07 -0.000717656934567868 -0.00019492427252019827 0.00023373422814591165
1430 -1.538940126678084e-07 3.833770091573763e-07 1.9438967490753986e-07 0.00037198886742374326 0.00010566300941845893 -0.00024734787259747374
309 1.2172636860071148e-06 4.338909676116272e-07 3.736220130200101e-09 -0.0005263256499771164 0.0005987872344770274 0.0011888009113209007
1442 -1.4142373109582858e-08 -1.1606666197164194e-08 5.099775449081399e-07 0.00025502928766298457 -8.421119302224377e-05 7.990537673090437e-05
1178 -5.5925861673056456e-08 2.21382533443001e-07 7.8620962130718e-07 -3.3661182232232276e-05 5.7205063240686077e-05 -7.43711520843448e-05
865 3.514001653318714e-07 -6.115835612495588e-07 1.976665913543144e-07 0.000181962720743038 0.00018727416052363475 -4.2341845488195826e-05
1780 7.764450217913175e-07 8.874116273866025e-08 -5.007657096984834e-07 -0.0003502576184627778 0.00012618173147281554 -0.00018324614435985821
515 5.494943892672434e-07 2.1065799806782299e-07 1.3830560366144823e-08 0.0003581959333694323 -9.474227105018869e-05 0.0001485307071352753
1250 2.0066225127433382e-08 1.3825337254400974e-08 3.4991349755819526e-07 2.4524040585859358e-05 -4.6521311368772695e-05 0.0002882131382318528
328 -2.667453929214138e-07 -1.5768889335083972e-08 2.0057341712563832e-07 -0.00023715491331197414 6.39831643112043e-05 -0.00030227803303946446
387 -3.7709235217907474e-07 -5.285217914215379e-07 -5.1734362285771474e-08 -6.896147792449359e-05 0.0001297697913429829 0.00021289999480195664
1839 8.25289139491066e-07 -6.017634601822394e-07 -2.3174833736778607e-07 0.0005477973434636599 0.00022619105023632 0.0005722936439332848
1084 -8.525224675469104e-07 -6.000863102670997e-07 3.1112311335082047e-07 0.0003827210565160704 -0.0003285423831001733 -0.00013139993353269449
1136 1.0709797750692932e-06 1.0663630403283401e-07 1.8502299954208878e-07 -0.00019105040347933497 0.00019086605306823157 2.3384710844115173e-06
516 -4.4704457903897357e-07 1.367381223828539e-06 5.018467520115069e-07 -0.0009567142876385041 0.00042728503893378953 0.0005141281170721326
2036 7.978296929549854e-07 5.500659187376365e-07 1.0181728936508007e-06 -0.0005335164945008111 -0.0008883300387249948 -0.0001572914538459719
1100 3.613043521802601e-07 -4.825238497005826e-07 1.1917455213708e-07 4.474679711447525e-05 8.136996198631561e-05 -0.00012444773263785235
1767 4.965141092063019e-07 9.449018969767102e-07 -7.254436656415602e-08 0.0005276468494118394 -0.00043773218429854244 -0.00044696666622048175
1344 -2.924723031788717e-07 3.357226913521709e-08 3.4866216499486033e-07 -0.00011397138621002073 4.941118586979869e-05 -3.755619266440852e-05
1740 -1.9720749337101117e-07 3.806432305257559e-07 4.405364649726131e-07 0.0002201288868953022 -0.00016176316276567313 0.0003726771727708783
249 -2.70528686874369e-07 -3.675467683004697e-07 -1.6232450744137556e-07 -6.710637171150414e-05 0.00021518184090977606 0.0004556451217778445
1648 9.811520707637835e-08 4.851451412346053e-07 2.2243847410737606e-07 0.0003223302415171419 -0.0006502542163783891 0.00030200616354008177
1002 3.1816520152338955e-07 3.072345179602452e-07 7.420335316656297e-07 -0.00047049642006912444 0.00040028770356954413 -0.00048467338430684576
1455 3.732984940083682e-07 -9.095961781108803e-07 5.956962654649827e-07 0.0005710822554549249 -0.00022155634462685535 -0.0006574577174471875
2082 1.9025771798982916e-07 -3.7742425993861674e-07 3.897480614526514e-08 0.0004026922219083994 0.0003103446853651894 0.00015519221490803008
1379 -2.228381575270778e-07 -1.4644714747339104e-06 -1.3056448261996815e-08 -0.0003483643115050214 -0.0003316571627805825 -0.00041675438595434414
1424 -2.692780572093855e-07 -8.014428261681296e-07 4.3055182828700887e-07 7.735715190140359e-05 5.044167874184266e-05 0.0006085095855205071
1149 -2.900522348763833e-07 -9.77179083768894e-07 2.3935850297091714e-07 -0.0008486382866279151 0.00026381532960614065 -6.479667483860704e-05
423 1.0591462444972494e-06 1.711151498139333e-07 -4.850053659284074e-07 -0.001108750188296597 -0.0005911531406589566 -9.453191894029999e-05
618 1.1462352788952518e-06 2.445326158817225e-07 2.77667185401434e-07 0.000466146065514787 0.0002491816115508761 0.00025694848652718525
110 1.0063480102375545e-06 8.220457859195259e-07 5.968763818440241e-07 0.0001599158188570628 0.0004867765183827112 8.775147170835137e-05
606 7.838713608440641e-07 2.3591677962774533e-07 4.661855667743196e-08 0.0002495666815940831 -0.0008149794469987232 -0.00043937208502060015
398 1.1949187978524255e-06 9.766311418065618e-07 -3.2803007159017947e-07 -1.0194559868190458e-05 7.069242659576935e-06 0.00011165389752327168
1069 6.014336590902987e-07 -1.2578167139963153e-07 4.1067884902696555e-08 0.0005858939524529174 -0.0004611828656945501 -0.0007257686384667573
839 -4.774956473144718e-08 1.1944027299537945e-06 -1.9743725074812812e-07 6.427015957023633e-05 0.0004181591007661503 0.00121479200636745
793 3.095380402054381e-07 3.8153386819738907e-07 4.293831692048821e-08 -0.00019207700929664041 0.0005718133435973596 -0.0008999278629913755
1669 -3.7814963000956064e-07 -1.5989713971898197e-07 6.712761943492178e-07 0.0004241007964319439 0.0003106157493329398 -0.00047198771254362555
928 1.0625921969107888e-06 5.458857608553467e-07 2.404418848331604e-07 5.658465347946995e-05 2.1770377639686588e-05 0.0002041913539967166
191 2.718080105950883e-07 2.0826905019081516e-07 -3.110204834712737e-07 -7.07610343429618e-05 0.00012066946919581999 -0.0003133611413236608
1346 3.015613360599693e-07 -1.5309151411957282e-07 3.4765099343725775e-07 -9.042471027398454e-05 -0.00038539395965337574 -0.00024356925013370895
1880 5.2212158140641855e-08 -2.929281445151008e-07 2.3032694166686331e-07 -0.00025217267508869734 0.00020778734736247233 1.0919127625825762e-05
1539 3.341833283900246e-06 -9.548694980970512e-07 -6.159965097786514e-07 -0.0004329530705469323 0.0008382437702559507 0.0028526654158339024
976 6.064822470206291e-07 3.056493030720112e-07 6.975494039253702e-07 -5.049333056113025e-06 -1.911477079050097e-06 0.00013951039155980495
689 8.52614131749875e-07 -6.979198689036244e-08 7.412820703380287e-07 -0.00033023140285395473 0.000445026468390881 0.00032484803768772455
82 3.820162821338594e-07 1.1980297168373893e-06 6.869541074660506e-07 -0.00022417648850054392 -0.0004391360861106183 2.114162722641311e-05
1243 2.19782876827113e-06 5.682374850063802e-07 6.048058336809366e-08 0.0002129361644627966 5.706171553291371e-06 0.00012356099083473394
843 2.266415681294059e-06 3.5921057801670797e-07 7.46722980654133e-08 -0.00022618352622316546 -2.189553378252643e-05 0.00022514276814329323
1042 1.2195400326138533e-06 9.752898306328875e-07 -6.568635933462988e-08 -0.0005602295652472833 0.0007302914655632361 -0.00014124106950012992
1026 -6.568591808510725e-07 1.0947678499632283e-07 9.095540220905715e-07 -0.00011620033819998177 0.00013641369778273594 0.00042435573801373
1327 4.0164706670399936e-07 -1.345085045843435e-06 7.892970940143548e-07 0.0023535023112696853 -0.0005166568019964804 -0.0003009355275064158
907 3.5946496313311517e-07 -6.663724495719416e-07 -2.1547094639515196e-06 -0.0003740393265604631 0.0009893940912277762 0.00025562043848662946
1279 -2.9553069477982663e-08 -6.165402677745801e-07 -1.1712900941658777e-07 -0.0005137010375911573 4.2880504573978875e-05 0.00046072055687281893
1418 8.143005938157762e-07 2.3817279775615807e-07 2.0867852151932527e-07 -3.622619850737218e-05 0.0003088501821887318 0.00014609140783476574
1328 -2.567375154929217e-07 4.611711158180377e-08 -4.5847409386811366e-07 -0.00023127669303130746 -3.936977522375949e-05 0.0004079349298344751
175 -7.168796671030283e-08 -1.529657976715965e-07 3.329701825263481e-07 -0.0001226313420357723 0.0002501437951838449 3.0687193349303784e-05
1032 2.5422255033556673e-06 -3.238118135118472e-06 -5.2879761645506896e-08 0.001297853528432871 0.0012115419182323422 -0.00036935117340001935
1764 4.640873838699742e-07 4.247902178722686e-07 4.5326443270888056e-07 6.471132103892726e-05 -1.819416072889445e-05 0.0005725106763168117
267 1.305673108219331e-06 3.027386278104879e-07 -3.024782150666012e-07 0.000693158641539589 -0.0015655437279069198 0.0014359626707130231
289 1.0682112152294368e-07 1.111680617515379e-06 -6.322757937616435e-07 0.0002387744345733192 -0.0009678238144042692 -1.8346345474857567e-05
1254 8.624494778378077e-07 5.91869983645211e-07 1.0924243508394494e-06 -6.212489801192448e-05 -0.0005273737890291234 0.00023115488323992148
1034 8.660202748504437e-07 7.847164643195816e-07 1.5299491291168084e-06 0.00018926743383366307 0.0005426563141588573 -1.2484494665781314e-05
1968 6.985030516189635e-07 9.613620363387625e-07 -3.0536408611043666e-07 0.0004624318968152627 -0.00029228018515273333 0.00034615707528226007
707 -6.335851048053233e-07 2.933935993164191e-07 3.439888144268162e-07 0.00020175623880359987 0.00039656321564448047 -0.0003754407795014048
757 4.7220018101627577e-07 -2.949988547689926e-07 9.239910850192118e-07 -0.00010754669318783033 -0.0008685824313172717 -0.0003055760756431318
1435 2.80010793249774e-06 -1.443419056284285e-06 -4.343454631438418e-07 9.053301212770488e-06 0.00019831968922901693 0.0004609904883816375
145 6.130709966958668e-07 -5.817994056939141e-07 -1.0654616527274546e-06 0.0001842008909538674 -0.000606585618986865 -0.0002180044485703592
1423 7.704340694789907e-07 3.976048784850545e-07 3.736829031669346e-07 5.8213732945919066e-05 -0.0006423964972270565 -0.00029903706388673633
944 5.018509088715945e-07 4.801898981216146e-07 2.69504172943957e-07 -1.1294182704544134e-06 -0.00032214045586753524 5.425167604654333e-05
1369 5.779195764354496e-07 3.155838435330385e-08 -1.0354792922067994e-07 -0.0007506267124062812 -0.00029247853410873883 6.941473110700248e-05
1905 3.8097009770947933e-07 -1.5869641788189445e-07 -4.961969304145398e-07 -0.0003077424498952764 0.0001652859002860593 -0.0001451482231420793
386 3.195555610836301e-07 1.596355679505763e-06 8.906031856207308e-08 -0.0008535612179013149 0.00010150549063123948 0.0007024336893725979
813 1.0163977552195945e-06 1.5997150713935498e-06 2.323463029707871e-08 -0.0007636410584438383 8.340055784396383e-05 -0.0002463841271025023
821 7.426409585725582e-07 1.0609878669170062e-06 -7.329476413901016e-07 -0.00039344732943119814 -0.0007734866631181428 5.295762984141553e-05
1524 6.141555416627603e-07 -2.3826300389418284e-06 -1.7646498312165449e-06 0.002354354650553791 4.807538488002462e-05 0.0007455452725157034
574 6.425117578878788e-07 -4.3936647401964946e-08 6.57122462305341e-07 -1.9658851380865734e-05 -0.00019768313949763966 9.247905968970537e-05
469 5.384377098941856e-07 2.1361023198926268e-07 1.0819207943139117e-06 3.5934610520270552e-06 0.0006026621813530783 -0.00018920375332967456
1304 1.0106499576845089e-06 -1.097038245026348e-06 2.3502580290713073e-07 -8.85818064757796e-05 0.00034832249808643926 0.0009181978850174177
488 1.3126815202813831e-06 -7.071199748345613e-07 -9.071951532363914e-07 -0.0004280448008619805 0.0005250623226318327 -0.0003962172965899187
1115 1.3307056709262357e-06 -2.7215016661181304e-07 -9.995609852095563e-07 0.00030120552159176395 0.0003047065794701339 -0.0003611270966379892
243 1.1497585857439937e-06 -6.955069269071529e-07 -3.94460577814968e-07 -0.00045874639273426953 -0.0003271440120992176 0.00020474666159158033
1055 9.672975382727508e-07 7.501544398714085e-08 3.546111424820606e-07 0.000307036308271106 4.021887445106841e-05 -0.00016723696982821694
1343 4.6255251928186207e-07 9.312817009460497e-08 -1.1783905917925641e-07 -0.00039294316746492196 -0.0005684292123749869 0.00038142593805942963
463 4.0721224429909e-07 2.327109432232052e-07 -7.426392025525513e-07 0.00021662193866314923 0.00025310104361666566 -0.0001114099071766786
1093 -9.27899137717051e-09 -1.8328035611673764e-07 6.105997182068194e-08 -0.0002654278965940232 0.00012244637125687356 -5.124262461230928e-05
354 -2.5016576539921553e-07 1.0691426359954941e-06 -2.0750982599835852e-07 0.0002033865515039068 -0.0005003965446835762 0.000575156204526972
477 8.487903679310244e-07 5.811322447148475e-07 -9.624706606612608e-07 -0.00034468599523253745 -0.0011196539508200106 -0.0003798318086147464
959 1.5324033117565734e-06 9.645787109897067e-07 -8.405516214431973e-07 9.033329919946043e-06 -0.0001483846218572784 -0.0011292951597976356
399 5.265837845594074e-07 3.5045814918046115e-07 1.0953216417725678e-07 -0.0006103135708690195 6.81621569604864e-05 0.0002470524770056724
324 2.4730051027230986e-07 9.187841373347277e-07 1.2333294958923414e-06 -9.328255532058798e-06 -0.0007322136214155249 0.00010458157419572377
15 2.599084076793095e-07 8.381515733529721e-07 6.801361882174218e-07 0.00038440234496687 4.899711959670123e-05 -3.9133066281455354e-05
1397 1.0656077273334269e-06 3.187215436736446e-07 -2.1259667405797857e-07 -0.0003934442919206382 0.0006647298201126842 -0.0008945777679063431
2195 2.1139683908175924e-07 -2.0883930673625963e-07 3.1117839793824243e-07 -1.3401882100061605e-05 0.000384258231809295 0.00020370139445554172
1212 7.2418672033833e-07 1.597221445676305e-07 -1.3326749502218286e-07 0.00024681804415817977 -0.0006009321836575904 0.001172802698877921
458 6.83911976573262e-07 3.441126329690419e-07 -6.897939136699483e-07 -4.972544073951065e-05 -0.00037068640646449125 0.0006500842139865454
1401 -4.7679548172863763e-08 7.45241382213745e-07 -2.345541810884224e-07 -0.00033238376466025174 -0.00022294631300521554 0.0001309564219576432
1121 1.2265635400137886e-07 3.1425717567402036e-07 5.662568491116954e-07 -0.0003467359158605065 0.00032168369218446417 0.0002018282594871644
963 8.251419519359223e-07 3.1403755787424685e-07 -3.983088955866027e-08 2.9659086243835236e-06 0.00043993396302291856 -0.00035695613214501885
1251 3.1564931690353106e-07 -5.709520790683597e-07 -6.284405894093551e-07 7.362286035882079e-05 -0.00016340933547358537 -0.00012720870014120336
1540 -1.4546975302881643e-07 -1.7452633840047362e-07 -2.561044116194018e-07 0.0002985700238537314 -0.00019574822616593246 0.00023033086768916759
945 3.205207525311166e-07 -4.630038526074636e-08 1.4679209076402786e-07 0.0005154983372251938 -7.244310759799098e-05 2.9453479638765558e-05
872 -1.2553667543996356e-07 6.923456734870727e-07 -1.1381417424861919e-07 9.52886986431582e-05 0.0008886083421916285 -0.0004534814224664539
939 7.94772708012271e-07 1.8322029726872048e-07 3.0825690208909365e-07 5.911225313661885e-05 3.969952333701763e-05 0.0001748350073176895
994 1.1739471871997027e-06 6.138162318378947e-07 -3.703918817476063e-07 0.0006823586723322485 0.0005245552119560954 0.0012055419084156676
60 -2.2567743002128248e-07 1.0897744258472356e-06 -1.6544684850016024e-09 0.0004504602856569109 0.0006486172913740143 -0.00036080695809646905
255 7.710690856238516e-08 7.526817241702711e-07 1.9075450914118484e-07 0.0003520759343583468 -0.0002038396048255503 0.0007531980330577124
1536 1.1383943657952813e-06 4.133293214026843e-07 -1.7678440548427522e-06 0.0005140005050284917 -0.0004673433139104547 0.0008022886480636375
878 7.065670115348045e-08 -6.543852132839539e-07 -1.7838986621341259e-07 0.00019688456221197541 0.0003873331561113308 -0.0008475114812549608
429 8.686364102314744e-07 -2.196903215851544e-06 -4.241063166789563e-07 0.00012879920985040932 -0.0004703311195900314 -0.00022227655842452438
1334 1.0650936616514246e-06 1.2047094593986186e-07 3.0539307007928205e-07 0.00030719841129690307 -4.294960808403124e-05 -9.073569910470452e-05
991 1.0300781473761992e-06 5.980188799518164e-07 7.179940922657517e-07 -0.0006185638523393176 2.780530902654719e-05 0.00015598131902269075
542 -9.987937080899955e-07 -4.837610184034936e-07 -7.252405256335048e-08 -9.628130415115276e-05 0.0002829675923321584 -5.9134582145613074e-05
1078 -1.6660143456163362e-06 -7.27916740065583e-07 -8.291434809213014e-07 -2.836353811724637e-05 -0.0001127371497052287 0.00011096515415043481
490 7.882651459422848e-07 9.420861276090193e-07 -1.8759304592533766e-07 0.00031645844451136916 -9.639496975941292e-05 -0.000582382316973539
365 3.923344001531724e-08 7.060230879802099e-07 5.408701554797665e-08 -0.00013256405811483022 -0.0007938155730134525 6.483564386833241e-05
802 -2.3690079978819495e-06 -6.498827011780669e-08 -1.7444939226484645e-06 -0.00046077782204525245 -0.0005341596276460099 0.0019504614095109205
1213 -1.2814077017643932e-06 -1.5517562950098705e-07 6.472192182193756e-07 0.0009050815067046656 0.000958096189369691 0.0010919561728913504
512 6.031111272378367e-07 4.79471009384993e-07 4.310236472583349e-07 0.00029320961845249733 0.00027698108306944323 -0.00014611507259081643
906 -9.466547617329629e-07 1.9780941846904587e-06 3.2592667719858393e-07 -0.0010905267807965829 -0.0011709370765937252 -0.0013876304529523516
1061 8.689970986273559e-07 -6.687731093002231e-07 -4.0944341238121335e-07 -0.0008210771281737349 -0.0013530641644353698 0.0004951953831586815
1200 3.8635300459914453e-07 1.2579909075254585e-07 -2.939197867070402e-09 0.00048370973405501737 0.0003784904479215801 -0.0001470116498817722
1523 4.703387078603133e-07 -6.27017376178975e-07 -8.515786658840912e-07 -6.160760830510397e-05 -0.0004937903307417728 0.0005784261613717759
1190 8.147546642169505e-08 9.182922990318208e-07 4.6939235714245514e-07 8.532099151742741e-05 -0.0001716146927053484 -0.000643594409246628
1231 5.000930113732316e-07 6.275383547758257e-07 -7.671987490954136e-07 0.00028050681872944343 0.00017441319297548493 0.0004411651090824195
1065 -1.1667261115396186e-07 6.438807193940896e-08 -7.234548181660458e-07 -3.267727686012769e-05 -3.447807343990986e-06 0.00033959306189302707
363 1.5246992153067688e-07 7.010506287725969e-07 5.056679265922809e-07 0.00043494804231014486 -0.00028242884468206896 0.0009010490152526939
1559 5.976627504663982e-07 4.122131699080615e-07 6.07325140665721e-07 0.00028429468559093866 -0.0009116016701790358 0.0007473640827868963
495 -2.588554086861681e-06 -1.8694641177373178e-06 -2.3040506155674216e-06 0.0005091557831215477 -0.0002342406402599454 -0.0011673022048206633
684 -5.73522172628072e-07 -3.714713691534062e-07 5.842873719988529e-07 -0.0005049815505395873 5.9434091952921054e-05 -0.0006953844095973885
541 3.304246634764152e-06 -8.137796757149e-07 -3.9852000122252434e-07 -0.0005627301226749099 -0.00016990935719693733 -0.0007683763018071751
1515 -4.4835304755525747e-07 -7.745500238445619e-07 4.473148689033348e-07 -0.0004372773870604215 0.00019080363607278916 -0.0008974090161719993
224 7.514223390019365e-07 1.7712827983644117e-06 4.569932830816554e-07 -0.0005247184045114626 0.0011258098961714786 -2.5728782525599317e-05
754 -1.688625885591251e-07 7.799433092812867e-07 -1.2309767476534255e-06 3.137982977848123e-05 -0.00017442593066541447 0.00012650621856585768
1003 2.07373194420893e-06 -8.478940195104605e-07 -8.088963634898426e-07 0.0008129232202338122 -0.0002505936436921916 0.00017260101374327974
551 -7.466094113154364e-08 -6.942136966147701e-07 -2.403603071287584e-07 0.00017078683081937397 -0.0004783028795008183 -0.00014917733979462084
1045 9.276794870767869e-08 6.036753074482459e-07 -1.113664102643621e-07 -0.0007391323686999203 -0.00044964328356072254 -0.0006299474989531668
1068 1.886579444662568e-07 -4.941574478419579e-08 1.5983288232013544e-07 -0.0003777559519251573 -5.286157692995215e-05 0.00013226964089001629
818 -6.721959633946882e-07 -1.2910361165516138e-07 -5.738071413129063e-07 -3.851092804094657e-05 -0.00010184059778611534 -2.5616614579126804e-05
1260 -4.376427735616188e-07 5.031240499757883e-07 -2.130005774713044e-07 2.128243829109656e-05 0.0003802427277537237 0.000515495310355751
861 -2.016379225148721e-08 -7.787150628014038e-07 1.1436387270261869e-07 0.00018358518394071788 -8.447066425708428e-06 -0.0005467863741239916
1450 -4.795450026902364e-07 4.378178271536986e-07 1.629904362461644e-06 0.00030937596703288234 0.0008746201319716522 -0.00024505504358380046
474 -2.757509727065121e-07 2.1799105306087307e-07 1.505175766708111e-06 -0.00011775775062915058 -0.0008705325397264425 -8.677061493544624e-05
209 7.049671714963427e-07 -3.827651822144398e-07 6.516527629830264e-07 0.00020864253776600443 0.0001314199431997361 -0.0002749324043521478
1116 1.0217185008360367e-07 -1.0503828394200475e-06 3.7292048350854787e-07 8.538721817240603e-05 0.0004765698569308178 8.070999627717232e-05
472 2.0940194048268357e-06 -5.181349403296177e-07 -2.4290897038375163e-07 -0.001124401390212525 -0.0009696821781610445 -0.00023911289385290539
1452 2.3164873238846912e-06 -2.5300570492893595e-07 2.2419443729356076e-07 -0.0003475682514967921 0.0008691198060523061 0.0008995542124992642
444 2.678900495092403e-07 -7.358559602120746e-07 -2.3807772591999653e-06 0.0004092578990143206 1.7336890051994846e-05 -0.001141368257404855
717 2.4989832650335843e-07 4.775567653473996e-07 -1.675324775665892e-06 0.0001785780562254427 0.0003511855981419078 -0.0008942385519733628
1872 7.293770518079551e-07 -4.831063076280266e-08 -2.355591439258752e-07 0.00014471076330004192 -0.0005395263747761089 0.0002077335804708002
1396 2.958410021065726e-07 5.496648817272472e-08 4.73641551227469e-07 -0.0002778053790395907 -0.00020773320991810833 -9.30380533458037e-06
220 3.55145321114121e-07 -6.742364084107412e-08 4.824849810620019e-07 0.0003452101180906138 0.0003167253277904638 -0.00010248803695005537
1664 3.555682862950668e-07 6.238131932378e-08 4.2506772803339214e-08 -5.802813613564746e-05 -0.000330764776540911 2.7060632672071974e-05
1431 -3.385233293577182e-08 1.3757766489919457e-07 2.8906388374899664e-07 0.000678275498862729 7.854946084084711e-05 0.0002829323973886071
1365 -4.2889912215781465e-08 -9.796962326728203e-08 2.52639929595021e-07 0.00034517339612634684 0.00026218171053055177 -0.00016010038566262758
931 -1.0097945228346481e-06 7.930013813893769e-08 -1.1437690142408999e-07 -3.6627539644905144e-05 -0.0005060329985118192 -0.00033694963847232017
1024 -2.718498909789754e-07 3.652977195880072e-07 -4.4789721581057293e-07 0.00029158596549560823 -0.00019157139062532248 -0.0004198069076046114
1152 -2.99310292291228e-07 2.616638008399193e-08 -4.139960997350343e-07 0.00014125235237841155 0.0001189340380881009 -0.00020737807620392742
904 -3.0436623403486214e-07 4.138808800594851e-08 7.820947812845368e-07 -0.0004556225193434374 -0.0008578328890029469 7.509098406536866e-05
916 6.034351537688791e-07 8.399234504691195e-08 3.513739117750761e-07 -0.00016130979650005653 -0.00036835589256445025 5.291539885756142e-05
696 7.358887712651364e-07 -2.623367089753804e-07 5.707516168645402e-07 -0.00013463764476449367 -0.0003092202043247802 0.00034611184794491596
591 1.9978375135014212e-06 -4.071810403037449e-06 2.0184228091888598e-07 -0.0009658012967275775 -0.0014563686865353836 -0.0008027347156050614
1583 4.2933047297297564e-07 -5.607827704370538e-07 1.1517979376866243e-06 6.2492127277534e-05 -0.0008263410754483036 2.330360891364076e-05
257 -1.942315474215177e-07 -3.9074503583888917e-07 3.563206305828525e-07 -0.0002927451134690951 0.0007926400130228237 0.00018348456200698553
505 1.775133964577716e-06 -1.22049579462125e-06 -1.4684856740204452e-06 0.0007508188052318805 0.0011460672583776088 0.0006384082078996282
2099 2.0859595713717454e-06 -8.045915861622914e-07 -8.651956465554897e-07 0.00025888920244538657 0.00012999825104343543 0.00019371090206814947
234 2.1290383467504134e-06 2.9497634142972425e-07 4.78658777771863e-07 -0.0004809751884269216 0.0002040627309251281 0.0008463586311865474
1119 2.9027186553870317e-07 -6.603843739453398e-08 -1.7182689179087445e-06 0.0002603536711042195 -0.00022750559223801923 0.0007431658344511599
923 2.7270379131376746e-07 4.1825773213251904e-08 -5.769775225454591e-07 0.0002455548005291424 -0.0002539676081588676 -0.00025743913122250334
1259 1.8259318197102038e-07 -1.3578224581322606e-08 8.880310847449495e-08 0.0001304575545562311 -1.711047228497567e-05 -4.022255551327848e-05
1023 2.1327944622836653e-07 -2.513627970575815e-09 7.046369412294615e-07 8.336907481093323e-05 0.00011062709115374164 -4.338658976600042e-05
1041 2.2204632339717254e-07 1.7952534043708669e-07 3.797177797735039e-07 -0.00028735610944133236 0.0002585723113550856 -4.7013883536511984e-05
227 3.6574435631837747e-07 1.5112137632911543e-07 3.1194357447679444e-07 -9.528360339349918e-05 -0.00022898556661678113 -7.639117213267984e-05
164 2.970033440540872e-07 -4.5498901730521277e-08 5.209710331606867e-08 5.036165433106507e-05 0.00021843201962393216 3.52455268668318e-05
1218 -9.487745358775474e-08 -1.035916079426338e-08 -3.136953441052217e-07 -6.011462248136373e-05 2.5223876423635297e-05 6.717890837008599e-05
1092 -5.319225149954224e-07 2.0511062734152595e-07 4.499341910022086e-07 -0.00014744323835170418 6.670477274321484e-05 -0.00048030098185807674
231 4.685431971361539e-07 1.0667845025998323e-07 -1.899532028488116e-08 2.4926502846023526e-05 7.637023802485142e-05 0.00010174266908815417
85 -7.666731974674881e-08 6.140837431352501e-09 -2.324453036663578e-07 -6.854631533822511e-05 -0.00037330326575786766 4.5032110855920694e-05
359 5.396342757605331e-07 -8.948098110421294e-08 5.5452233192859996e-08 8.186014453927319e-05 8.344217441557426e-05 -0.00010543113303374738
1355 4.4983697939506184e-07 7.0013184024515366e-09 1.294706925204082e-07 4.391657219920331e-05 -3.7740761824087675e-05 -7.746323809901334e-06
187 4.388735816226377e-07 -9.363635669514382e-08 -1.238900838642298e-07 -0.00010749197803804265 8.308781954278737e-05 -9.132941284686563e-05
1565 -5.891367304616268e-08 7.779257291232428e-08 3.078888371235889e-07 -0.00018580054779461825 -0.0005098849841743034 -3.4495413202942485e-05
1241 -1.636068569196893e-07 6.436329477555539e-07 4.140164751968727e-07 -8.673327625732784e-05 -0.00025541812534831385 -0.0005385598443848596
247 2.2162953405280336e-07 -4.5494958785191526e-08 -3.6522989944112355e-08 4.209701506097331e-05 -7.978220661157212e-05 -3.584097862886407e-05
1242 -1.0208037065505185e-07 2.1880824559432887e-07 -2.3964113745828314e-07 -0.00015008365663420433 9.249618182426985e-05 -8.154686316732575e-05
664 -6.056673270708586e-08 -5.0791576881604094e-08 -1.7743330732015103e-07 -7.022096918457735e-05 -0.0001377314993274279 -7.50312810575418e-05
440 -1.2485057554859503e-07 6.701980799460423e-08 2.136408878901232e-07 6.50215444703323e-05 -2.5756313107049123e-05 0.00015397165672756044
1568 1.1715771177942781e-07 9.972394341128969e-08 -9.614971227418592e-09 0.0002431681588709735 0.0001368384952429775 -7.625142755713763e-06
914 -3.177137443769085e-08 2.787942736818732e-07 1.8405614803354547e-07 0.00036657881175905483 9.60998131508258e-05 -0.0001453205464320813
122 2.98493590453372e-08 2.527677760465828e-08 -6.24948705840345e-08 0.00013652255760954917 0.00017319895698609752 0.0001322172649535847
5 3.570028725807055e-08 1.47025291791995e-07 -4.917397933284473e-07 -5.8638590942200166e-05 3.9113341082983285e-05 -0.00011568580553460698
1228 1.0574992590301777e-06 -2.771006863908818e-07 -1.784512529570425e-07 0.0001469908532312024 0.0001255762024259944 7.679751675598877e-05
605 4.0807533204060845e-07 -2.5349669036692556e-07 -1.2942067859890232e-07 -0.00016762066300616245 -0.0006624570158632332 -0.0007574424066420322
489 -2.847730570441538e-07 6.625480790999842e-07 -3.1216986765665066e-07 0.00017896445802357666 -0.00034131291910396094 -0.00011846004005403798
10 -3.33614597265789e-08 -1.6787351596763408e-07 4.536622548023821e-08 -0.00027371901397364886 -0.00040043722828207826 -0.00012483536694877468
1703 3.4776657852466594e-07 8.077027068318566e-08 -2.067358094143823e-07 -8.025261749707618e-05 0.00011577814636403876 5.596576752780612e-05
536 5.789367503353936e-07 9.096900265345907e-07 -6.311297088736059e-07 -0.0005188678433189597 0.00041391837699707596 0.00023910262451029454
719 6.345627665638106e-08 -6.135587519525721e-08 -5.675540099185501e-07 4.1515807196174815e-05 -0.0002246086833006889 -4.73642249389174e-05
500 1.1623922684758466e-07 -3.57852699893304e-07 -4.443188914978657e-07 -3.205343664562424e-05 -0.0001841407264874035 0.00023570827318108843
573 -6.382540376344796e-08 1.9981697132692975e-07 -2.0621443478469654e-08 0.00012318421829874654 2.782281043463978e-06 8.544337683345172e-05
913 -3.9646549904026374e-07 4.975853636990563e-07 -1.7077403384674403e-07 7.831005716383802e-05 -1.779103221256432e-05 -0.0003791087187007187
792 -1.8522263671894155e-07 -2.0450738692310288e-07 -1.5314250935649293e-07 -0.0002258059329431365 -5.411770768355492e-05 -4.096987451378051e-05
455 1.0763359727250599e-07 2.1035418824738788e-07 -4.5139518320196535e-07 -0.00017381140265519023 8.714480087380912e-05 -2.0021990045845784e-06
1354 1.107252349083641e-06 -2.402535407180164e-07 -2.1612910439750133e-07 0.00016747694643290894 0.00034233793536376784 0.00019218369208352071
192 3.2056896554182524e-07 -8.163432189050591e-08 -1.43090574322138e-07 -9.82962320651417e-05 -0.00024080674091138027 0.0002795598132582721
735 1.2012017014718187e-06 -5.677847066428823e-07 3.000101520029205e-07 -0.0005635738669140711 -0.000538578834815947 -0.00042675487525151444
1316 1.6092181188010724e-06 -3.6442802087501077e-07 5.445655482286789e-07 0.0003909181622871697 0.00038215411382062345 0.0002543528203335844
730 9.478435438461493e-07 8.705272486434435e-07 7.031645297062584e-07 -0.00019049895998676677 -0.0003849377270698606 0.0007949020137706195
789 9.782403939052113e-07 9.665173830506734e-07 1.2669300995194806e-08 0.00020564290533225374 0.0004318786506123065 -0.000852024147246822
1348 -4.336952338894699e-07 7.774860682599517e-07 7.156078749326484e-08 -0.00015018865834085865 -0.0001868500477113148 -0.0001765500966194826
699 5.988123157145972e-08 -3.611437482888918e-07 4.364068738416069e-08 -4.7124965317299516e-05 -0.0001388352347392008 4.756871732746242e-06
283 3.2762901415407683e-07 -1.5797788152181722e-07 -2.1203277673850652e-07 -9.66869250203243e-05 0.00046366888261588075 0.00021241650759313722
1392 -5.72838826242661e-07 1.750056855794679e-07 -6.566663968251949e-07 -6.522848492087085e-05 -8.840226646214572e-05 -0.00020762199346627546
1141 2.071325953344632e-07 2.525313799005179e-08 -1.2100451035507967e-07 1.8838735681339268e-05 7.287332604980722e-05 -2.395279659865174e-05
486 5.746753972501389e-08 1.471639205677802e-07 -2.5814973589507227e-07 5.3462688111463125e-05 0.00012091963761700215 -2.660331474277776e-06
708 -3.489776192060891e-07 1.759140672377886e-07 1.0253197472604892e-07 0.00010928347607959918 -0.0002866693931498479 -8.907066846038939e-05
498 -5.1977823912142e-07 5.855394700944091e-07 -3.027184154805495e-07 -9.026404702432667e-05 1.9184807526002407e-05 0.00014673421255800392
143 1.5540517835086068e-07 4.428222465851566e-08 -4.150342376622336e-07 7.82398733778735e-05 -0.00010608091891886902 -0.00010745624992665794
633 2.366261868015932e-07 -6.488609791122735e-08 -3.6541843464478624e-07 -0.00011885205708223418 -8.636251561732185e-05 0.00017204234961431118
452 4.0856889839542466e-07 4.8699816568392294e-08 2.765805713232581e-07 -8.348327862383955e-05 -0.0002298443372243423 4.576933416115834e-05
39 6.226007620811563e-07 1.9463994855487987e-08 2.051972211282794e-08 -0.00021644744249976235 6.196274878411558e-05 -0.0004203472304417898
445 4.5591635657968445e-07 7.959438844693217e-08 -3.681841562105084e-07 -0.00015280831310808386 -0.00010843043340673368 2.252610108193358e-05
1219 8.405070977476141e-07 3.809084768172048e-07 -2.2977948334264046e-07 -0.00016817316304462728 0.0002559169204695633 -0.0005591816118483627
1257 3.805643383161946e-07 -7.977261755618707e-08 -3.0947353571282466e-08 -0.00011531668612028359 3.192781133559715e-05 -0.0002555550910611334
503 3.429168013973662e-07 -1.6141442612989076e-07 5.382276725821797e-08 7.676812509113142e-05 -0.00014079022876020434 -1.2269908908481777e-05
975 5.350417499551698e-07 2.884341790854479e-07 -8.028768229107571e-08 0.00023862595985715596 0.0001729679600942485 0.00011449411866059821
559 3.6859140310536074e-07 -1.4130809021533324e-07 -4.990713180035832e-07 -7.782176962488308e-05 0.00019449146905252586 -7.412138806166401e-05
135 5.775485300664081e-07 -2.8646874099289745e-07 -1.2662559059351372e-07 0.00014692295301710424 -6.115832828325778e-05 -0.00032270206730136453
1551 3.003015813029437e-07 1.879376130106902e-07 2.861066758989162e-07 1.2865543398050013e-05 6.321826527801398e-05 -4.302516317715787e-05
864 -1.9624848893439216e-07 1.44463794755645e-07 3.0775107022800867e-07 7.869894420694176e-05 0.00018352572510675616 7.020139594699676e-05
229 -4.7143300336327916e-07 1.0098623287928951e-07 -8.75541073023322e-08 0.0003367215950826425 0.0002942476921114881 0.00020874350401733685
7 -4.452819367011609e-07 8.452763283457333e-08 -1.278110565441522e-07 -2.4674871485021773e-05 -0.0002816927446007702 -0.00020754844714473357
482 2.468429175046055e-07 4.01195239249584e-08 -1.2154737896570387e-07 -3.8868861284042114e-05 -0.00018625183088352552 0.000209599551033157
718 1.1265703598253863e-06 8.963164717200685e-07 -1.5512698087878796e-07 8.064673343332681e-05 0.0001244305639499933 -1.2960581707259274e-05
781 7.216827205582038e-07 5.892595259540118e-07 -3.628759332907931e-07 2.6241441491510476e-05 -3.531104605643483e-05 -0.0001388055503858806
1033 2.1649671674483335e-07 3.3949508780306754e-08 4.713246096349727e-07 0.00026961003772307205 0.0002456965198002758 -7.735001579451166e-05
17 1.1940491170870033e-06 4.274594879725142e-07 3.3068889522404706e-07 -0.00011866046469476546 -8.462924507388585e-05 -0.000212766199386959
852 7.682402019436042e-07 3.665903447378125e-08 -5.033164837908232e-08 -8.759180833337525e-05 0.0002454541733100745 8.419716724734906e-05
280 4.1770569817159724e-07 -7.1986650016063e-08 2.94227674187287e-07 -5.6458873509253e-05 0.0003281717858211938 -1.5281745530329334e-05
874 -3.6034100583588255e-07 3.1156110167757515e-08 2.565177361097217e-07 7.645231904146533e-05 0.0002791715172265223 0.00032053435443528427
1 3.827448283612886e-08 1.0655594292562788e-07 1.816590336082904e-07 -0.0001569088761130839 6.657497670431682e-05 -0.0001682233393794365
430 3.692425201497262e-08 3.881327525036704e-07 1.943807654602374e-08 -6.598967929775941e-05 8.27393737391055e-05 0.00014494937904184596
215 2.243281494963411e-08 2.869247170848422e-07 -1.2013361253182274e-07 0.00018690252955214245 0.00017896684572850434 0.00015944524997257056
554 -3.3369268499266064e-07 4.2909041582331513e-07 6.506237331660762e-07 0.00018268969251147268 -0.000110199559511025 3.0323490856476746e-05
88 -1.504124860151484e-07 3.0035133910356254e-08 5.282532462077672e-07 -0.00021834005791330507 3.501711246891257e-05 -0.00033701496767426847
287 1.2956224186084504e-07 -1.904045037398502e-07 -2.655484616746303e-07 -0.00019109825124071468 0.00022521296451214924 -0.00015436275469201785
409 1.9074276139052523e-08 1.8481957267858532e-07 2.2672982463497027e-07 0.00013249610631299642 -9.692986290830677e-06 -5.768599504331315e-05
1421 8.222789825439692e-07 2.446581034540183e-07 5.291262150299282e-08 1.934265652594381e-05 -0.00018492514620693622 -3.8635563485510183e-05
613 -1.3078193781104204e-07 1.9534517086492105e-07 2.2141626047581149e-07 -0.00038603667853979274 -0.00016963966722446125 0.0002707050363904365
745 -5.866224525374477e-08 -2.2882820350904643e-08 5.917732083577063e-08 0.00030284568753454735 -7.660419576301114e-05 -4.2962037233101815e-05
639 -5.629928415823435e-07 -8.167759475919439e-07 4.457477591344767e-07 0.0002134099898234102 -0.0002967862071524494 -0.0005735763941411917
884 6.197806634507992e-07 5.604727535249432e-08 5.479146815979971e-07 -0.0001279188985027503 1.8623728903704695e-05 -7.067340065224332e-05
728 6.859788780332397e-07 -2.446426002053604e-07 -1.9217521911028516e-07 0.00029572607306372234 -0.0001244791397860384 -0.0001409417890992694
713 2.53983973143916e-07 -2.7200287899124307e-07 6.337460901413329e-07 -0.00012507483758442527 0.0002483832097799885 0.00015805917285219398
736 1.5769936244908967e-07 -6.813280051828671e-07 3.496912286878504e-07 0.0002638438008268269 0.00026347472095967475 0.0002371929465671695
278 1.534435474800286e-07 -3.9115641089129524e-08 5.513448095626507e-07 0.00014397737527466336 -0.00012274205633676922 -0.00024193133209362606
710 -2.59073518636831e-08 -1.6712963893354677e-07 -3.932388535753897e-08 -0.00013494068109140388 3.94333695781555e-05 -4.748555396494656e-05
108 1.1497868049346595e-06 -3.245745183994844e-07 -7.381992736428075e-08 -4.5701744586509116e-05 -3.8077653739272915e-05 0.00038086431835263464
648 1.3543166888430962e-06 4.1601998977669e-07 3.8165672743868363e-07 -3.305172270546202e-05 -0.00040766683406909195 0.00021777842878321842
875 2.550238705913503e-07 9.208599097305221e-07 1.0056232270596337e-06 0.00021862838011852575 5.837545767025457e-05 0.00028745726450069974
1038 1.5076638742144642e-07 7.493826989974785e-07 2.8095138145545175e-07 -0.00013180704855368959 0.00011581120179224362 -0.00020706617106545978
577 7.645770241539203e-07 -4.306499914986911e-09 -8.22618528489377e-09 -0.000353262514954866 0.0002641503198917177 5.2682652839596986e-05
1185 1.0397308703950853e-06 1.9724394291859907e-07 -3.02664885435535e-07 -0.0001236102986167415 0.00021987776250155245 -0.000188977901533235
1372 8.234029778823876e-07 2.2273185677964506e-07 1.7200957081448903e-07 9.438169372212991e-06 -9.546494353021311e-05 0.00030307043347540695
1164 -1.5050415990452116e-07 -7.400643019678714e-07 -1.0230821751749074e-08 -0.00011023106680149857 -0.00013932904510844066 0.000598195292553683
1447 -6.37151183514715e-08 -2.0223564848735478e-07 2.001929262680223e-07 0.00011311290507396819 -0.00014778567099029194 0.00011917643752928606
737 1.089335054922726e-07 -7.191375534195241e-09 3.431549746413267e-07 -0.000177969842188139 0.00035141778798956403 -1.7153287674239336e-05
614 -5.254070023690123e-08 -5.657448521139957e-08 2.3000896560512207e-07 0.0001645098981007572 -0.0001607851124378721 4.852054998386603e-05
256 -3.0888027475393566e-08 -2.2580179987995072e-07 4.96024532343714e-07 0.00016151690985753 -0.0002593868664564148 0.0003542310479765662
594 -3.510694136014512e-07 5.055619078533456e-07 -1.341770385917917e-07 1.5795045382075695e-05 0.00042705109674974744 -1.2997052670688633e-05
749 -3.695156947665673e-07 7.816282911684692e-07 2.986090053221156e-07 0.0001993002599673955 4.429693952754653e-05 -4.607222438771829e-05
139 3.783957578900539e-07 6.645938142327083e-08 5.453020882227445e-08 0.0007908166173786537 0.0003027754918885709 0.0006898845782153594
721 1.3424144247559372e-06 -4.932738682637461e-07 -1.0043187504846715e-07 -0.0001747198226176244 -0.0001223067538110799 0.00016928564399751734
147 8.485501227041307e-07 -1.1194190790495822e-06 -1.13648362306059e-06 -2.5076870178344703e-05 -0.00029079337536778207 1.2035079243008488e-05
380 3.9485571532257795e-08 7.901674917036486e-07 5.593622869083713e-08 -0.00013804776686053541 -7.263915414821185e-06 7.77482712371815e-05
62 1.7624768521490404e-07 1.5806084798686733e-06 4.089718573986664e-07 -0.0006245235708019333 0.00040714176233522383 -0.00015103484059205042
525 6.92703073132884e-07 9.440110806376091e-07 -7.060007921950624e-07 -0.00045929087876638556 0.0005289373460206336 -9.226658256254519e-05
799 6.300513059577715e-07 4.837517388655401e-07 -1.0855296380668249e-08 -0.00019516637708921406 0.00027776898656715145 -0.00030108056394095173
271 1.36549790084568e-06 -1.2492593648366407e-06 3.9406948420079193e-07 0.00044699157083352204 -0.000296517088053365 -0.0015648721356213875
1533 1.1582261835857707e-06 -2.238132768552555e-07 -6.527029647293044e-07 -0.0003872623092946553 0.00014467095213520332 0.0001547403622681372
829 7.477939756372009e-07 9.781053995656387e-07 -4.1694328495584156e-07 0.00010750877639086661 -0.00030482170749931433 -0.0004903653079786846
615 2.1180441181035946e-07 -8.572863453382277e-07 6.604570909519161e-07 0.00016264568937762128 4.561461217190959e-05 -0.0006199475626605797
64 2.1274023442954497e-08 -1.0838405337268756e-07 2.4456176085802076e-07 -7.033166485397157e-06 -0.00011707794090691613 0.00019806114375103053
34 -1.3069767742870814e-07 -5.212594716977477e-07 2.6395142359517877e-07 -8.608194878879379e-05 0.00016997149236420563 -0.0002585890164350971
103 -8.819282346643891e-08 -9.682579451564812e-07 1.2256057670173898e-07 0.00020442866054758214 0.0008968181811794032 7.756968248108372e-05
425 5.848673763046058e-07 2.803023255114674e-07 7.527241686595901e-08 0.0002919009720171709 0.00073872286841217 -0.00023451876876743385
810 -7.24270216558016e-07 1.0115404154468719e-06 5.360262863458572e-07 -0.00013505613168788964 -0.0001135721580831025 0.0002527184279792277
1364 4.745197599809204e-07 -4.9511940271160784e-08 8.384458622578609e-07 -0.00014316983666477713 0.00035899246981412476 -0.0005368493514400591
8 1.18203949147786e-07 -2.4918379357247834e-07 -1.6988856335703487e-07 -0.0002311441091127005 -0.0001262462044960764 -0.0001542675202831535
1031 1.888986133247449e-07 8.403676789854185e-07 -2.2830086242646577e-07 -0.0006648265187985277 0.00019895871560135438 0.0005101072238495229
1756 6.405425918859206e-07 -2.472070863972694e-07 1.338991088506555e-07 -0.00015847828766860176 2.266099021565783e-05 0.0005099177255461858
421 5.035894558483991e-07 -1.0339156414946196e-06 5.094542584492583e-07 0.0002298557740991996 -0.0008390071292027555 0.0001878290593106995
1398 1.898658088918726e-06 -1.3235570425427424e-06 4.3295988740088735e-07 0.00015523253678711294 -5.448957547855688e-05 0.0006885717904638759
317 4.383647127922096e-07 -4.1849179237095403e-07 1.5739771657257256e-07 -0.00035955068072429376 -5.857720780637853e-05 -0.00020841703427904832
78 8.044164977581924e-07 1.22350165486017e-07 4.326810588340634e-08 -0.0004124193293692467 0.000647953393206462 0.00015209072011724447
176 4.4629500280190477e-07 -3.74374589899373e-07 2.2717423519120215e-07 -0.00014501585409861604 9.731121986606486e-06 -8.582429307166337e-05
205 2.9970757531613474e-07 -2.0599503962981714e-07 3.564111733406371e-07 3.710261223415924e-05 3.462560162460082e-05 -3.430872064773474e-05
104 -5.296159714809845e-08 -3.9929727823483264e-07 -1.7844418760743938e-07 5.5486040911204326e-05 0.0001530511668672097 8.259587847211679e-05
314 1.3998904902421023e-07 7.153568650100637e-07 5.674268817608339e-07 -6.349692990844161e-05 7.749446236028323e-06 3.974477298941592e-05
367 4.8171268143925934e-08 3.975497326523299e-07 -2.613008284678052e-08 -0.0004778239949301472 9.425602444173485e-05 -0.0007322812233994628
1680 5.889176187072168e-07 1.000772078293577e-06 2.2468544254114486e-07 -0.0007155153698041692 -3.92680003149262e-06 0.0003425935197179677
653 -5.24828899856773e-08 -5.3220301009008655e-08 1.1021890555963201e-08 0.00040001059228914044 -0.0004122018920494239 -0.00011001903991774139
616 -2.0334112596564037e-07 -1.3267094935126415e-07 4.355877407293092e-07 0.0006345604210089257 0.0005285439571922623 -2.812546779309635e-05
1307 3.0178310605984516e-08 8.970486440300063e-07 -7.20766841435394e-07 -0.0001557701522934852 -0.0002624085690870471 2.4354625884014545e-05
235 3.746514875438235e-07 6.166152653706071e-07 -1.3303217647338414e-06 -2.316936477529848e-05 -0.0009993739483861188 0.0005963291616018479
779 7.465686600611821e-07 2.3294553565991374e-07 -3.2105807977672895e-08 -0.000962585853141552 0.000485794978413097 -0.0003574724903201794
174 4.7492248655502325e-07 -6.839031640543385e-07 -1.2389045303870028e-07 0.0001542007362257951 -0.00011355275770032205 -0.0004972934672157746
1295 1.4290837636938702e-06 1.1281854244074225e-06 8.270851908520316e-07 0.00011202693049589559 3.478742684117539e-05 0.00031152743282033207
11 2.080825429500667e-07 3.4486302376004006e-08 -3.457248651036941e-09 0.00013800758672659658 0.00015100257475404876 0.00032599977915563286
487 7.388596252752573e-08 -4.117676441075812e-08 -2.348515207350211e-07 -4.19308813562358e-05 -0.00041130518486490284 2.6951745342951543e-05
548 4.358936477363008e-07 -7.530805963491177e-08 2.7315214650759904e-07 -0.0001368805063717397 0.00020348660094412398 -3.298477452604752e-05
690 3.5774803594461084e-08 8.373593401621738e-07 9.617260787638467e-07 -6.992775277876765e-05 -0.0007257493145323544 -0.0003014078949306945
1118 1.4282266018072626e-06 4.9868633395375e-07 6.604225396655811e-09 0.0006143494107029023 -0.0005496870651627349 0.00013966511926895962
129 9.885644990456056e-08 1.8555306510417533e-07 1.8202797353053904e-07 -0.0008503519617868772 0.000474979106908117 0.00014328783021539852
148 -7.04692985360905e-07 -7.691942993028591e-07 -7.783275820869026e-08 0.0005635253627727214 -0.00044046222568608785 6.303978975630897e-05
547 9.349937989539314e-07 5.015291220036204e-07 -5.80391108089864e-07 0.0008018724556920806 -0.00018961594548454967 -0.00023264203716530683
562 6.2935267198586e-07 -3.1514714958266877e-07 3.3241559563983314e-07 -0.0005509976352446095 0.0005748893394911624 -0.00025222161624500534
20 1.5037647488066578e-06 -6.867519748836197e-07 2.7544552126248036e-08 -0.00016510224258768915 -0.0005121668792329632 0.00036327973791044595
627 1.4087584780937633e-06 -1.1542043803100332e-06 7.394237358652122e-07 0.0013947416043263456 0.0003584147844596961 0.00026125961056829315
1019 9.65485609009762e-07 -1.0341877290525038e-06 4.382981087006389e-07 -0.0004583000971163227 -0.0003255993272437997 -0.00022877045005840457
173 8.573501815832383e-07 1.3885964993457892e-07 4.868499054711728e-07 6.132625622392083e-05 0.00037301465027872856 0.00014259736819095478
1443 1.725315586195571e-06 5.894728288898621e-07 -2.897676179185249e-07 0.0006189096107930293 -8.223543655752959e-05 0.0009303600348642884
725 3.4359202236812703e-07 9.496182894907392e-08 -1.1449923139192506e-07 0.0001581320279122604 0.00047644230823481136 0.0001726103470264564
712 7.101790184102734e-07 1.5211349834367373e-07 9.493688818516311e-08 -0.0003453766733599504 0.0003143090603719965 -1.5725889455220403e-05
1329 1.9926370100490326e-08 6.099016144507593e-08 -2.0051284224733531e-07 -0.00021512883138419101 0.000172875527182025 -0.0002202857572666796
788 9.765055274332748e-07 -9.423076236469038e-08 1.8154657192060375e-07 -0.0004909410843970709 0.0007177827969541108 3.760691612701227e-05
1320 4.717895392499239e-07 -7.306840648688052e-07 5.587615576927847e-07 -1.034882687760483e-05 -0.00022665394238222594 -7.401999117197659e-05
333 -8.46323951558514e-07 -1.603631615892216e-07 -3.640224048446872e-07 0.0005494290697800909 -0.0006724765641546466 -0.0003783411344085906
158 1.178974554212358e-07 4.0108116066538225e-07 -5.823171782586381e-07 -0.0004841377086107539 -0.0008645146803272771 -0.0012001933124633785
264 8.142693852206011e-07 -3.5616681472601457e-07 -1.9813353470186238e-07 -0.0005692925698040777 -0.00026841602271442116 0.00016095636327370812
812 1.0630064616970989e-06 5.809674364675449e-07 -3.042005716699515e-07 -0.0006683292828549391 4.9520844419262785e-05 0.00014481743478904287
539 9.484560099305539e-07 2.577763365597766e-07 7.208613706063081e-07 -0.0003068803289157158 0.000726710228288566 0.00028188907750792733
152 7.497239452300814e-07 -9.032905422107464e-08 3.7621135393791375e-07 -0.0003458439846310993 5.3517718747948355e-05 0.00032474719637556274
206 5.613499754395743e-07 -1.6864431046691696e-07 -1.8741701947321108e-07 -0.0001671794546508574 0.0001489210101310352 -0.0003883309818543854
746 4.75720881671265e-08 6.826953537026082e-08 2.327944079666785e-07 -0.00025401997128484186 -5.5921885065396855e-05 0.00018564287614287035
424 -2.8924669573033525e-08 -4.1483678485266927e-07 5.101488455804242e-07 5.275049266406518e-05 0.00010707965599096979 -0.00021888136244843642
791 -1.702093935676586e-08 -1.1000633374783049e-07 -3.028085239290986e-08 -3.416713212160824e-05 0.0003944918194729668 0.00012700909464196414
860 -9.335847378474045e-08 -1.7410866627127984e-07 -4.278079934823972e-07 -0.00019735685786347634 -9.248666212861491e-05 -0.0002294134050210349
83 -3.981711166771466e-07 -3.315565631806437e-07 -8.204973035585224e-08 -1.7774167291619827e-05 -7.503271310477229e-05 -0.00044533195060490847
1639 3.9654276052292295e-08 -1.4014808717087821e-06 3.5850998090483514e-07 -0.0001407191799854374 0.00016781497693669372 -0.0005316885319587853
785 6.332026787182482e-07 -6.355289704706185e-07 7.141232216084341e-08 -0.00015953400548329686 0.0008713678176692712 0.0002808204387462493
659 -3.752698083976798e-07 -1.0043339071854957e-06 8.397854579457369e-07 -0.00014819645506872206 -0.00038027477001432286 8.32406144706518e-05
226 -4.621288618203413e-07 8.97485866808917e-08 -3.6128904953624054e-07 -0.00040275534251351487 0.000222539982254568 0.0005834797801720426
1182 1.752935403705688e-08 -3.9813719461811597e-07 -4.892973101383887e-07 -0.000916752268698348 -0.0011241311011060962 -0.0018583536945694255
1299 -8.409034305004092e-07 1.1916999227698223e-07 7.17201939348016e-07 -0.00020683750670703877 -4.7040147097596836e-05 0.0006350528653850177
756 -9.346043562271423e-08 -1.6632660232730228e-08 7.63603542108187e-07 -0.000770072163110478 -0.0009514605950899585 -0.0009537029006049793
181 7.325303470841601e-07 -2.2092692051748893e-07 6.974752386944058e-07 2.1367815700283114e-05 -0.00035150247883856543 0.0009856809094879722
156 4.839762014205254e-07 4.5977392366476145e-07 6.360553516101551e-07 -0.00037152735153778274 -0.00029398350555904324 -8.236221219871609e-05
621 5.128058028644065e-07 -2.939896196876135e-07 1.5369535609000637e-06 0.001451019976260354 -0.00013556243414373305 0.00020009057659261224
1612 9.740765920554325e-07 3.31252931609884e-08 1.9392891769918738e-07 9.948868549283243e-05 -0.0005294539314494865 -0.00017943957365762993
824 5.263635310812042e-07 -3.920158612667824e-07 3.3075042497230316e-07 0.000115429437972258 0.00010054674251214761 4.57383450406724e-05
732 9.67454597935127e-07 -1.7096351403443224e-06 -4.5839194746217176e-07 -0.00029215290975474463 -0.0002756553318485413 -0.0010127594640437013
704 6.219850054928885e-07 -2.57239715165541e-07 -5.01970541735318e-07 0.00036139885363166766 -0.00030971700808593024 0.00035457075481322734
531 2.622023465385277e-07 1.958006814093792e-07 3.337550311880431e-07 -2.5064603168978965e-05 0.00029051085847089735 2.8355165125388425e-05
766 -1.863849297037826e-07 4.410442894825903e-07 7.398846679821105e-07 -0.00014983205079139724 0.0002210967820688105 0.00022265759649861547
58 -7.959696872510253e-07 -5.764833935490029e-08 1.0887468989570551e-07 -0.0002540881053354162 -0.0002594817517880533 -0.000285545432266605
286 1.8398941505190074e-07 -9.328016684952496e-07 -1.8843383034471083e-07 0.0001558396800742935 0.00029721048371001964 -1.071420018700295e-05
787 -1.5925531904595924e-07 -3.521130049152094e-07 6.89286356407859e-07 -0.0004301938580493571 0.0009258624779828918 -0.0011807672400130896
758 2.2665536710817668e-09 -8.366980974064446e-07 -1.5969622692639892e-06 0.00024843446928721414 0.00035253208437273636 0.0013567695122196218
1313 1.993733426948768e-07 -6.584475817964986e-07 3.4222131747434805e-07 0.00010400415534103854 0.0002968969703380986 0.00032061037318962155
962 1.0631817651518982e-07 6.287570477906936e-07 6.223303862795447e-07 0.0005080104429447739 -0.00015767998403553224 -0.0008295764062741715
1391 1.2601029501313963e-06 1.9605448371036706e-07 5.120929562077846e-07 -0.0005097940215734367 0.0004394343457274828 -0.00010931307538328913
576 2.1489480295384864e-07 -2.2420612501761243e-06 1.2824862423636751e-06 -0.0013515135738774767 -3.3286270272515325e-05 -0.0005781906204886493
731 -2.4633902586859425e-07 -6.144877235478044e-07 4.582686261241226e-07 -4.8576125021219957e-05 4.006454386926183e-06 -3.6093679041050116e-05
676 3.862405527589128e-07 -1.967664596299257e-07 3.9953752184869165e-07 0.00015083938049757385 6.17760122307041e-05 2.789378838700349e-05
393 5.936690048950877e-07 -4.3745903300449503e-07 4.533866508245331e-07 2.3910731844981897e-05 0.000299796972725738 -0.00012151832017077184
538 1.5258591548584157e-06 7.576416566730995e-07 -8.373049551050362e-07 0.00011577529632628731 -7.934271584793213e-05 0.00029170919042052377
637 1.4899775914215745e-07 1.048643726296231e-07 3.9738654822336874e-07 -0.0004788752526713826 0.00019461555946689713 -0.00018554209634464447
130 -7.853111718082773e-07 -5.606404720408861e-07 -1.1646067283051995e-07 8.707693415315449e-05 -7.614500068307668e-05 -0.0005988415799823467
79 -3.34980802176936e-07 -2.804519014532517e-07 -3.265009461890392e-07 -0.00015046824409276093 -0.00019926575689679753 -0.0003502571586830336
610 6.059917960296845e-07 -1.2268884313132871e-06 7.816989090003862e-07 -0.00011912670534349186 0.0010204687032855037 -0.00029663541573103435
819 -6.184683971551516e-07 -8.295314439972268e-07 2.112363242035019e-07 -0.0001037103300319907 0.0003355600141477943 0.0002556876011125039
416 2.9164428455872264e-07 -4.3115761569324187e-07 6.328550957574535e-07 -0.00016748894731050698 0.0009104423950421313 -0.0005459266793609437
572 2.5104130351097603e-07 1.7013209886493213e-06 3.3233914430348607e-07 0.0009726046618337829 0.0006214468049514953 0.0002706909785944563
522 1.2389219810300742e-07 3.4828366130461246e-07 -2.739653796600382e-07 -6.151784118388798e-05 -0.0004863624353494302 -0.0008483500389831061
672 9.51842224445557e-08 8.925462878429359e-07 4.977369676797997e-07 0.0002150725830748539 0.0005981215229163695 0.0003304858022709366
990 -7.742242526452413e-07 7.242029630734511e-07 -5.790983322571552e-07 -7.657929530557509e-05 0.00022583919385259663 0.0007507148309705261
336 5.881435797096323e-07 9.323371821907705e-07 -1.094056675145861e-06 -0.0006294479714768802 -0.00020351635820325123 0.00022575828618086913
1896 -2.3600567686396383e-07 -1.4583502022596726e-06 1.0544092491733313e-06 0.0004951128626704019 0.00015511426133052155 7.990808309583056e-05
1046 1.689468513038795e-07 -4.4646740049834124e-07 -4.255171794192935e-07 -0.00023573913157037647 6.35390173204175e-06 5.620744378481351e-05
584 1.0532156587590283e-06 1.1418476026499037e-06 1.0958894801481902e-06 0.00019980269843407222 -3.19331691404252e-05 0.0005019468820908069
797 1.210286584070403e-07 -6.23269262517811e-08 -5.09127895073557e-07 0.00044168398887241983 -0.00012683052599845842 0.0002196337465810087
1464 -1.6965299373202402e-07 6.995234032224861e-07 1.0901128489782916e-07 -0.0003620944186252976 -9.26864598317776e-05 -0.00017948274664722561
790 -1.5236295440962155e-07 -4.983737409748478e-07 2.2008688415325098e-07 0.00020877323352089708 0.00019959343198770055 -9.468527225393159e-05
71 -4.453403162927904e-07 1.6843598998942053e-06 -2.216544631105592e-06 -0.0008703243398705319 -0.0002637359528777315 -0.0012286650541198584
519 2.532907482713077e-07 -4.246227113946184e-07 -3.159262177535316e-07 0.001064538660611167 -0.00015175933937067317 -0.00045473563749029173
56 1.183417835336367e-06 3.237577967154017e-07 -8.965788922997603e-07 2.3520880481414353e-05 -9.775891976523841e-05 -0.0006747967757456596
411 1.2939375228093828e-07 1.3383982586654653e-07 -4.974522152666158e-08 1.3801613001339356e-05 -0.0007648100054615641 0.0007001653492976002
1021 1.2908847050450877e-06 8.209920523116324e-07 -1.8577916459678746e-07 -0.000720734315770391 0.0011635068162679423 0.0006003348970171375
1531 -6.454824064010141e-08 -2.8799914217738103e-07 9.496452199328081e-07 7.330925555510179e-05 -1.6664424732969253e-05 -0.0007515049360828445
38 -8.331921979384137e-07 -5.707328787522825e-07 6.966224724959991e-07 0.00032463957896023744 -0.00027930114975744356 -0.00024829167192072645
1657 4.486943788426256e-07 -3.220410358587578e-07 1.604249664397039e-07 0.0002480796037676031 -0.0010098320545209572 4.697000309007032e-05
649 5.350130123154809e-07 8.956062784659146e-07 -1.601272920448321e-08 -0.00042761566977473996 -1.3304417908480912e-05 0.00023427887025530584
480 3.8875449261395595e-08 -5.709820833255918e-07 4.783151021385555e-07 -0.00013548917234366763 0.00018939246417116052 0.0001316785376800585
587 6.607609233332954e-07 -9.479234357134354e-07 5.39077762405111e-07 -0.0006335885563752692 0.0003373065918495339 0.000663515110113263
329 9.949937696351537e-07 1.7962703573021104e-06 -2.5496382817149106e-06 -0.00033962369197547746 0.0009196586700159688 0.0009356254741202875
150 6.000979032728692e-07 -4.3214583148384553e-07 4.0563570612586085e-07 0.00011755694173966016 3.910316443287302e-05 -0.000875377664223767
119 8.825301939570278e-07 -4.4179778255494555e-07 1.9989662556771478e-07 0.0013983063206930702 0.0004605469710295924 0.0001309036451032293
322 2.313429604316672e-06 8.79641573168451e-07 -7.572510542177617e-07 -0.0011902518953290158 0.00022558033124197102 -0.0001777738094573879
57 8.364367169893128e-07 8.810469495968989e-07 2.691394184755983e-07 0.0008566262645464264 0.0008089803376069002 0.00023464838574230917
405 1.569718652309755e-06 -9.615282631460056e-08 1.6907047248649383e-07 0.0004577660592835668 -0.00018168849447667906 -0.000709264204893779
1349 2.0580423465239785e-06 1.171862358741933e-06 8.198778946724412e-07 0.0004940858671352898 -0.0004099868301758102 0.0002789514939624199
826 6.576140706646539e-07 -1.9252886973470208e-07 8.989701127057098e-07 0.0007522493090584534 -0.00040990128464749644 0.00042620894467002625
54 1.7251305495322792e-07 1.8950874695858365e-07 6.591317421888297e-07 0.00013125730861428522 0.0007799865933377713 0.0001690179841265679
165 -3.2938970804363656e-07 3.979732007325231e-07 -4.3982997865152113e-07 0.0005387281169856421 0.0001585066482029527 -0.0005040538950146373
1071 7.055411003930437e-07 5.007581556378983e-07 2.870435514857251e-07 -9.002847207106388e-05 -0.0002455549923010209 -0.00021387121298270143
1107 4.092067696267065e-07 4.7053030080715733e-07 1.5350518793459658e-07 0.0003249237727333981 8.955552380540181e-05 -1.765207639287276e-05
433 4.011212833975447e-07 1.5168218272632468e-07 -2.3256918265021218e-07 4.896690840839928e-05 0.0006797560227734996 0.00020882809691119653
1399 -5.747242100302686e-07 -1.5366610985886554e-07 9.642913679150067e-08 0.00013395633169161722 -0.0003578491141105622 -2.650162568765479e-05
1828 1.4757433797140163e-07 -1.3396052674693424e-07 2.22596442885021e-10 0.0001584246758814873 -0.00010889454015991164 7.443080424361832e-05
1012 1.3195634675549192e-06 1.6169661147392593e-06 3.1442207132317984e-07 -0.00018595383290112666 0.0003683870829758696 -0.00020780993165700303
670 1.67666831753831e-06 -2.510759445310822e-07 3.0875473662656876e-08 0.0005786025522575102 -0.0001495526813961426 0.00012377676326645888
475 1.4517949489194096e-07 9.218653031809062e-07 1.0266828582277831e-07 -0.00027023671286257087 -0.00033305765262071744 0.000527783577797778
565 -4.688928224106412e-07 -9.316103083046525e-07 1.3356035449480263e-07 0.0006913814843487557 0.0007940527307705152 -9.504263823302667e-05
846 9.269679317511629e-07 8.909351209850106e-07 9.985971175557755e-07 8.151991902675185e-05 0.000990714394129836 0.0008009262573043099
762 1.161491491750772e-06 2.8422740208358166e-07 1.140072629119607e-06 9.296336769972939e-05 -0.00010086560208364399 -0.0001464209260095941
415 1.995111718600415e-06 -2.302751747170383e-07 1.688482192743953e-06 0.0003172395494889216 -0.00022795538553463054 0.000788899133465902
376 1.428674578949481e-06 1.0831427000137625e-06 2.682799494253054e-06 9.41828985013952e-05 0.000536811520414085 -0.0004976761066437635
1063 -3.604568515974363e-07 3.3903836340950823e-07 1.4437665288425093e-06 -0.0003659259027299096 0.0005364477592581568 -9.954658231649255e-05
217 -3.907643166023024e-07 -8.221634599808026e-07 6.262326748167695e-07 1.0825427439442862e-05 0.0004917771027936787 0.0001385349217095762
92 -1.1860127447227445e-07 -1.8552953185097166e-07 -2.759751354249789e-07 -7.12041742433626e-05 -0.00017347581257867378 6.618543823958142e-06
1467 8.683984599412754e-07 -2.179768783271015e-08 2.585845005070566e-07 -1.2652350478229741e-05 0.00029674617920434 -0.0006750593980696007
428 9.229524926281465e-07 2.414730801476588e-07 4.344693515248913e-07 -2.4196915640937247e-05 0.0007651646986755136 0.00015325722106675617
368 -3.7368643264223693e-07 -5.896131632534611e-08 4.6798470015064734e-07 -3.169488539742764e-05 -0.0002224626425279124 -0.00019494817108219595
665 1.3686294718352797e-06 1.2053855316180008e-06 -2.4802208351395906e-07 -0.00042631738867461355 0.00031579519625148875 -0.00030821745421102297
767 2.2998749134715914e-08 1.9230225915705465e-06 2.3035477113887514e-07 0.0013790788062883427 -0.0006258689598944886 -0.0006619449272803119
160 9.127046783899092e-07 2.1448600757787995e-06 -5.711102013195689e-07 -0.0005001915446742714 0.000783646423471918 0.0003510638828227276
643 1.8420613913372402e-06 2.9385162454678874e-07 2.4352713291620106e-07 0.0010050566602045105 -0.00018479261652061817 -0.00022016165159888563
478 3.1144106658941713e-07 5.668540310453932e-07 -8.042676557546433e-07 -0.000294507419217576 0.0014773667701542036 0.00028201843560445874
578 2.904287093228774e-07 1.3920194896443336e-06 4.6914165486615217e-07 -0.000513008215428366 7.778584002120528e-05 -0.00018174326062696892
1479 -1.0806455197230554e-07 4.873078573310727e-07 1.3142186557593573e-06 0.0002520065357309137 -0.0006123332206775604 -0.0005032179882974825
782 1.0765057488213254e-06 9.949907875863083e-07 1.6769233185288866e-06 -0.00106149316921288 2.013543462676355e-05 0.0006495769768865655
437 -5.760930844878116e-07 7.508101006557347e-08 6.214266134845876e-07 6.734713273028632e-05 -0.0006785209917495452 -0.00022477022032592054
651 -3.942050435906118e-07 2.7771767743147204e-07 6.244193032593878e-07 -4.4506655251459154e-05 -7.777777504448978e-05 6.442670681512392e-05
185 1.19240747567722e-06 -1.7294174203422174e-06 -5.521984310146286e-07 0.00025650362556190603 -0.0007427124242421848 -5.1732783894797366e-05
604 1.3344041335518705e-06 -7.49564939663019e-07 -1.000877589087223e-06 4.112566950902878e-05 0.0005336098412049462 -0.000634952178317847
1303 3.9596157342903605e-07 4.930962487490769e-07 7.427010456301983e-07 0.0002913669732581594 -0.00044245328851704406 0.00026461674949773874
2088 -3.9895811897234567e-07 5.768637863774585e-07 -1.0651544888507772e-07 0.0005963533595970045 -0.00015254409866652792 9.112526833099026e-05
200 5.409618956105807e-07 8.852100689869019e-07 5.948655353618034e-07 0.00032975257855726383 -0.00012747234383845698 -0.0004959639987803177
772 1.1399294487226101e-06 1.1537602614861512e-06 2.464406594335928e-07 0.0012812758462419883 -0.0003624409118052805 -5.3741918537844174e-05
980 5.74406531502446e-07 8.65463978861623e-07 -8.460453052734864e-07 -0.0002388253253259023 0.0007127361168440372 0.00011323878074764418
408 -1.601217839043557e-07 -3.961821978921463e-08 7.670308175126879e-07 -0.00037624437138133364 0.00031309037018320763 0.0006410980149923148
95 2.789427454364004e-07 6.537586672995501e-07 -2.2105245656320354e-07 -0.0006346219433995649 -0.0005283358952746296 -0.00023586852063671053
714 -2.307133265641977e-07 5.27628699118722e-09 -8.127198423928641e-08 0.0003910923258341332 -0.0004638641459071155 -0.0002067282722248844
96 8.10082813339583e-08 7.907841380951464e-07 3.808189849824052e-07 -0.00012671807584144028 -5.006930432252405e-05 -7.814887994472537e-05
957 -1.963382136129818e-07 -7.986900278104367e-08 4.710584916539147e-07 0.0002615044054194644 -0.0007000929679925748 -3.279189518192947e-05
27 1.7643457536480692e-07 3.5724654151432973e-07 4.783302925953561e-07 3.478834331102934e-05 0.00027175750103971993 -3.0030562073020724e-05
611 9.465952931069808e-07 -1.6412198571895846e-06 4.381125935628185e-08 2.1928557324385214e-05 0.00036545259630997655 0.0006516788905480002
854 1.1049383487024035e-06 -5.307946032481666e-08 -9.850555637862233e-07 -8.998773740983506e-05 -0.0005772246261518888 0.0008592904588961167
479 1.1191744938973443e-07 3.751048090688733e-07 -2.496534156871976e-07 0.00018030107844599127 0.00022318405542826172 0.0006374028633289506
16 1.817064364397592e-07 7.497503264317144e-07 2.8194609663906966e-07 -0.00023358991519324237 -0.0005308677452209746 -0.0005350537132903108
740 -5.423721736769156e-07 -9.910719188286854e-08 -2.9512461508228316e-08 0.0002563882913810764 -0.0003998339410845813 0.00036168755591422494
1142 -1.832005761177531e-07 7.74674185960308e-08 -5.227602851274977e-08 -0.0003432903691649109 0.00019370275305002544 -9.556668730067568e-05
339 -1.3108371126140162e-07 -1.193877736348017e-07 -3.2415895710024136e-07 -0.0004762464093497782 0.00017141712209447476 -5.681767701675555e-06
126 2.0172432396159333e-07 2.9217260454113576e-07 7.477941499696012e-07 -0.0002839448847832821 -0.00021316322708580382 0.0004723913246612254
1272 -4.3416368397307424e-07 7.794211557135674e-07 3.317100473257152e-07 -0.0002985126703592192 -0.0008279520119898058 0.001091592708325211
337 -4.3230556905339056e-07 8.071651500950676e-07 -4.367057415894797e-07 0.000313373730876535 0.0007964358745474626 0.00020788890183986427
240 3.897950276613914e-07 -2.0937236185365288e-06 -8.501930641065677e-07 0.0008315261344079246 -0.0005129510706517065 0.001606841572705523
1204 -1.3733968891344632e-06 4.568122285106204e-07 3.470531263927528e-06 0.00011332769320255323 -0.0002365471505188172 0.00019622443851246462
67 -4.931256051699109e-07 -3.7987462656479614e-07 -1.746133850907414e-07 -0.0008980752631381927 -0.00010195095820768007 0.00010297199589393783
1239 7.174769880553466e-08 8.016589133667252e-07 -1.97874219692119e-07 -0.00050214261771516 3.6061638137226515e-06 0.00019215858664728053
626 9.935425948503288e-07 -1.0818371182036891e-06 -5.705431304679632e-07 -0.0002683525595870643 0.00012071355360889975 -0.00027630550851778167
837 4.630708963483051e-07 3.8923420020523517e-07 -7.617945248096572e-07 -0.0006936343894475614 0.00031270763230917454 -0.0008519273742048406
459 2.0525199361667495e-08 4.6459800502568424e-07 -9.013732257085518e-07 0.00026913078989803014 -0.0002072343710487089 0.000676886075240212
908 5.410665499158674e-07 1.4130771911074853e-06 1.557267101588829e-06 -0.00017562570016171748 0.00011600139040003049 -0.001462749922304363
154 -1.9171081042710285e-07 4.676444185472599e-07 6.235738768112329e-07 7.129859887251911e-05 0.000123454540062209 -0.00032764837164138915
221 8.392758685470588e-08 -2.7216707242696056e-07 -1.842891618124282e-07 -0.0002903928195083514 -0.0002687726733055107 -0.00020980413016674827
715 -1.1928322158381233e-06 3.4784093636771646e-07 4.699416688772202e-07 0.0002564868785228158 0.0008246833454043025 -0.0011073829563587126
80 -7.319231466419478e-07 4.828148971997914e-07 2.817101213471495e-07 -0.0006437828775840549 0.0003965203888140936 -0.000597714545281453
99 -1.2736055245301328e-06 -9.717544855872934e-07 2.3822424234497144e-06 0.0012478029552389113 -0.0011069213190825166 0.0008144866895872743
702 -3.3160595560658097e-07 2.1188496796094263e-07 1.0471527073367965e-08 -0.0005436531146946791 -0.0009944810803263566 1.6226011459871518e-05
933 -8.130267163216783e-08 6.517636484307766e-07 5.780161143503928e-07 -0.00035345409744265714 -0.0006861052976529279 -0.00010948168660135942
667 -1.0043039269844396e-06 -2.877151090263633e-07 1.3032389507878973e-06 5.989337883742232e-05 0.0008616505524545576 -0.000404289699765187
557 -6.741891278410984e-07 -4.670524731883693e-07 -2.0161121957190052e-07 0.0008755526528343451 0.0006267216705683124 6.062801973671548e-05
343 1.3286388117935184e-06 -2.8256088578921145e-07 -2.0380217431357023e-06 -0.0009606841878347235 0.0007477172801341034 -0.0003269234986487998
857 7.320711693135514e-07 3.166175678050166e-07 -1.2504494919526075e-06 -0.0007999038153586777 -0.0005474729068306922 -0.0010545821675004717
285 7.431753285995223e-07 -1.0782251906036023e-06 -1.5111123360478566e-06 -0.0006063723657223158 0.00010592743080782343 0.00010840156936814148
419 -1.4650698906884345e-06 -9.76301433017483e-07 -5.01991736533747e-07 -0.0001570273099802922 0.0002548985238694964 -0.0008954061823136351
1159 3.02570860761499e-07 4.637685176373536e-07 -5.078621581444357e-07 0.0007223267820121955 0.0003524661440678537 0.0010752013645964555
1201 6.423702494954494e-07 1.7316750030364946e-06 -3.5364747956030357e-07 -0.0005445584122373617 -0.0002700331909215436 -9.552084793902625e-05
485 -3.8514844425538943e-07 3.1733797990610945e-07 -3.626673377715382e-07 -8.406576164080063e-05 -0.00018230082644629927 -4.236803495083392e-05
571 -2.7897718792148308e-08 -4.4646276841347905e-07 1.1116990523410343e-06 0.00042757965648427816 -0.0006207423481011456 7.695845899935696e-05
279 3.360475634244599e-07 -1.1804925345106727e-07 1.2103031148075552e-06 -0.0003691215098728788 8.373737311574872e-05 8.67020043325546e-05
43 1.153204081481211e-06 1.5575640910689297e-08 1.1152458820818436e-06 0.00010097598635650266 0.000325413673679844 0.0005730689177493211
1339 -1.751922037030985e-06 -1.5708570119225596e-06 -2.1966890995338646e-06 0.000239435707696076 0.00046016229944835204 0.0003633126445356383
1004 -2.4490475322844542e-06 1.2803423034972398e-06 -6.918557300463748e-07 0.0006695989707662522 -0.00024188480647593767 0.000817562721347708
84 -1.2682117702830046e-06 -5.472770326018877e-07 1.2922366853845765e-06 -0.0009680788165121638 -0.0007801690242356878 -0.0008605402293520851
523 -5.644296193026549e-07 -9.161425643857754e-07 5.407316339404867e-08 0.0016080085159403447 -0.0010071794814607961 6.854010706563128e-05
400 -4.985742336080217e-07 -5.901645406868532e-07 -1.6046873105350715e-06 -0.0006539209526476342 0.0007909554526527327 0.0006746275307928604
180 -4.142579040773221e-07 -2.519554597798654e-07 -2.235466026175661e-06 0.00016461498493060698 -0.0005690337641146979 0.0013064538135097818
623 3.107365607027025e-07 5.392365012969243e-07 -5.767975711199602e-08 -0.0002948719034139615 -0.0003454111033351164 0.00017649619167935864
697 5.689733497395368e-07 -4.869872525552939e-07 2.079947296210896e-07 -3.0148098347204665e-05 0.0005594825628646942 -7.605945154244418e-05
759 -3.714949899388565e-07 -4.0347049506086974e-07 2.408269432678344e-07 -0.0005125089278180965 -9.007790250516588e-05 -0.00047077038219584
929 4.441323085425238e-08 5.953014434841495e-07 3.3073758091601215e-07 0.00018838191495365692 0.0004101207417476274 0.0007595287224248841
1594 -3.335740667888226e-07 -1.5158369347489237e-07 -7.318852123735888e-07 0.00019667559948053238 0.0004885775841425863 0.0004314832968875719
952 -1.5279697775408793e-07 5.322325039983915e-07 -5.363584327404029e-07 -0.00016875953982754783 -0.00021867074010482475 -0.0004369360586327308
586 -6.281564273850991e-07 1.1393668359202104e-06 1.0771871056444199e-06 -0.000847186713496907 -0.0010476417332664584 0.0004247326169011328
26 1.3561553110384564e-06 -5.848246149350302e-06 2.020422703156321e-06 0.002196187106250158 7.534730922505003e-05 0.0009927410220344369
232 -4.749424368020149e-08 -1.1273900300738334e-06 1.4786496228459129e-06 0.0005529505529948164 -1.2366340302101063e-05 -0.0003876659383462491
580 7.082560318796073e-07 8.634262069290063e-07 -1.7392378822938135e-06 -0.0005849953080175847 0.00030541440398870284 0.0005258207976679966
816 1.7549294647810055e-06 2.399114788168457e-07 2.764639415352953e-07 -7.958018036150936e-05 -0.001308432026323543 -0.00029654742605335235
599 -3.069444863318073e-07 4.302123814437654e-07 4.380912712156041e-07 -0.00015348185941318498 -0.0002371138476157856 -0.00019270428484453823
315 -1.5980426534506569e-07 -3.591012260687486e-07 2.6599175357839695e-07 0.0005551261138891725 -0.00028625460404590444 0.0014962855715361248
809 1.4497140767333974e-07 -3.1115263643972277e-07 -3.769392833194647e-07 -0.00038406930206216506 -0.0002073720592075369 0.0001950344551513872
330 -5.922234040261814e-08 -1.645661542935507e-07 -1.0040898498014517e-06 -0.00043359401996477374 -0.00014872103420671392 0.0001644825695737296
401 1.4008487324926292e-06 1.8369925868449687e-07 -7.158387325094582e-07 -0.0004007342835792217 0.001037820987537569 9.293513693544611e-06
652 6.078591160377945e-08 -6.621288716102831e-07 1.510605413219523e-06 -0.0006979307925943921 0.0006839035337663277 0.0001317910159718268
132 1.643801831694797e-06 -9.8045714408048e-07 -1.1599939436503005e-06 -0.000503117141687634 -0.0006726698042049373 -0.00010151361989147135
1025 4.4658014519316955e-06 -6.169832736166154e-06 -8.829131086830944e-07 0.0032605680069311476 0.0021558785061627176 -0.003762477191885218
765 -1.1762872354834392e-06 8.544044250911124e-07 -1.2521685402432633e-06 -0.00012840115418725305 0.00016475403503745514 -0.0012601232571007605
327 -9.571709473303193e-08 4.318837289706981e-07 -2.283599210720452e-07 -0.0005116201721641789 -1.1890149396010224e-05 -0.0001484497409553721
617 -2.2197540260065928e-07 -7.330898205389743e-09 2.524085106604615e-07 -0.00012896189133957076 -7.343940084978388e-05 -5.197723357790357e-05
558 4.65907559748328e-07 -4.409394249803756e-08 7.647608082156945e-07 -0.0003622665760723177 0.0001497713506842375 -8.745384351155001e-05
1036 3.2648918117983775e-07 5.517156404549989e-07 2.9999915773049773e-07 0.0005553409176340685 -0.00018153969710766764 0.0006298395661572014
831 -2.1643853390899838e-07 2.1665402011908703e-07 4.4151857315704553e-07 -8.82625340748353e-05 -0.00017514707375922473 -0.00030505216939612386
733 -4.541508457286228e-07 -3.274773652971678e-08 4.345167084274307e-07 -0.0004746211627346075 -0.0002841123787539191 -0.0005808938423456186
1509 -1.9938148933391559e-07 2.6187731181405827e-07 5.957228792349751e-07 2.4462419700889267e-05 -8.575785094098914e-06 0.0004974830649257118
1112 -8.532553122649575e-08 -1.5451397042759547e-07 -8.625956205351781e-08 0.0002176122981655589 -4.91145379540511e-05 1.663842167414212e-05
738 4.416238888092819e-07 1.1825632201289328e-07 -1.0420778411946823e-07 -0.0002032547388267882 -8.563831582878063e-05 -9.9125537024079e-05
86 5.610608990022193e-07 -1.322705312875008e-07 -6.024043640353229e-08 0.00011969240716917485 -8.528783918925675e-05 -0.00023114804834816784
144 4.878231330426693e-07 1.61551520287221e-07 1.7314945714771294e-07 -0.00018072544958403156 -7.836377057085008e-06 4.829791292453422e-05
107 3.451042774495254e-07 -2.2294498510332643e-09 -5.312740982670027e-07 8.666589158807378e-05 0.0009862630444026287 -0.00018276181897211328
743 -1.5960985284006843e-07 -1.3734787697131552e-07 2.9119430421946544e-07 -0.0002458813548542244 0.0001455282196697392 -0.0001281698711063886
869 5.564005389522617e-07 1.0506321753164855e-07 -3.069862713516674e-07 -7.169583865554221e-05 -0.00012816829171161882 -0.00030744379530964634
1127 4.1964664271839426e-08 1.7515253196515847e-07 -2.3818902578379264e-08 -9.205483194751593e-05 0.00029572508134372103 -3.230765132476276e-05
647 3.548864319342448e-08 1.7609048229315086e-07 -4.521244093167915e-08 -0.00015804434234119202 -5.953843601935078e-05 0.0001574630015964581
211 3.0153392058533207e-07 3.375462317234093e-07 -4.769511484079825e-07 0.0001569452074928637 5.439602995449439e-05 0.0001695229819069674
727 8.254812738542966e-07 -2.2921074517947728e-07 -2.5382216555677397e-07 -2.8975414571607654e-05 0.00017362037719747124 0.0002719024922791645
22 2.258231129354638e-07 6.653523139233198e-07 -8.996755949775776e-08 -0.0004013112864808686 -0.00036157270504377824 -0.00038423590333803406
771 1.0476869446630426e-06 1.4986142660846784e-07 -9.14773972037791e-08 -0.0002510942588041963 -0.00028894056513042337 -0.00023893593324443119
24 6.112225791121773e-07 -1.1528749235077912e-07 2.889632428835773e-07 -7.789399646817084e-06 0.0002591758876542367 -0.0002210974135534029
467 7.975725739012324e-07 -1.0144473546348948e-07 -1.5213472752040814e-07 0.0002403513752920929 -1.060588053806882e-05 0.0003291423802131852
674 1.4430100953056087e-07 7.456054904049527e-07 -3.9465303164846893e-07 0.0003368418216127767 -0.0006461135446980945 -0.00048592878138166364
506 -4.014425508143075e-07 1.683001641327491e-07 -4.554788525013794e-07 -0.0002037425981582544 -0.00012379152118931083 9.856673138968848e-05
418 -4.675752730128514e-08 1.387432947275054e-07 1.9545062534824318e-07 0.00019099106463386017 0.00027498829837424517 0.00030555496717867665
751 -3.6031084120351264e-07 1.163369257201939e-07 9.361389892980565e-10 0.00036353378911031895 -1.1578185583357331e-05 0.00029297453306684456
251 5.1920193415963636e-08 3.32745920173376e-07 2.4058635275100357e-07 -0.00039388951624717486 6.84467373979086e-05 0.00010529533119023579
1385 -4.892917250975392e-07 1.488532360399157e-07 -2.0415314362822362e-07 -3.8172933419957274e-05 -0.00017594044791139116 -5.902811734256793e-05
656 3.7438730324717683e-07 2.764334541435166e-07 -5.4963004750065e-07 -0.00027894507420887825 -0.00041721115016941414 -0.0002890304118661375
321 4.234042726433024e-07 3.8908329676382946e-07 1.262252161908186e-07 -0.00031552079110382157 -6.038907495854477e-05 0.0004538554339673168
303 -3.4294793072456473e-07 -4.681619071370586e-09 -4.7387179925137075e-09 -0.000136695717052643 -0.0002403721123594861 -0.0002201921687012328
304 -2.8335254395966522e-08 -1.3070651813544502e-07 -1.425061236117948e-07 0.00021755606966236536 -9.555759507715058e-05 -8.561908167052358e-05
545 1.4922029773823612e-07 8.932305707766982e-08 -5.07330487723608e-07 0.00016336960274900307 -0.00026937100496417834 4.538920664192171e-05
413 4.2874759019133883e-07 5.8657373685227245e-08 -3.8016157213626126e-07 -6.56483719654182e-06 0.0002501662797114127 -0.0001678011317492263
1323 8.839361673016306e-07 7.153282482455218e-08 6.429493424912302e-08 -8.805015364651112e-05 0.0007045420863106471 -0.00034678565256323664
722 9.052888932903143e-07 2.330092485452454e-08 -5.581709996823558e-07 -1.0427845522463324e-05 1.037072702542506e-05 0.0004344080001767725
540 9.068820451001229e-07 -6.379753665477383e-08 1.9616114756918614e-07 -0.00023084897788169226 0.00040678757186963697 -3.407238847152032e-05
457 1.9531046331552957e-07 2.836703835375622e-07 -3.7075599116084116e-07 -0.000246589514073842 -0.0002560892043496144 -6.475371326116887e-05
1261 2.2042772349370493e-07 2.2626423258417196e-07 -1.1892633922189654e-09 -5.145482657399503e-05 -0.0004336674360489381 -7.011355333280817e-05
396 -7.332475135984393e-08 -7.176194717393434e-07 3.1028369773267695e-07 0.0004644923125169758 0.0003231919642338332 6.236052664912154e-05
49 1.605852403226229e-07 2.2935834799343645e-07 -4.19683054938879e-08 0.0002153221721802488 8.658477329178898e-05 -0.00014889848471971124
222 1.7349841175994204e-06 2.76054344060361e-07 -1.3349082362509852e-07 -1.4164335470153296e-05 0.0006064977608356458 0.00039430183206547886
1347 6.67139336361491e-07 4.43135789230214e-07 -4.028442099504671e-07 0.00011430714957887876 0.00017509537395610654 -0.00020958739152525063
124 -1.1190716379230223e-06 -8.227520645184387e-07 2.2380030160864777e-07 0.0002808729582466569 -0.0006259032608027516 0.0008085958063429969
6 1.106149257148177e-06 -3.435915661044806e-07 2.014631405198148e-07 0.0005299557866995351 0.00011169110199999696 0.00010204045125543873
378 3.9338453908250444e-07 -6.755265069941232e-08 -6.398864893421373e-07 -0.00014520546188809163 9.004026574211062e-06 0.00013223053817512152
203 1.01789364833717e-06 -3.461051315538253e-07 3.254506444870422e-07 0.0006742945506030015 -0.000342825742498534 -3.291859684337092e-05
112 3.52591266633637e-07 -4.869905706343675e-07 6.824588278958488e-07 -0.00031712875322747027 -0.0003856748206210141 -4.8703237425409056e-05
188 2.874755544397735e-07 3.1372205845678097e-07 7.010264464943827e-07 -0.0004442231192250164 0.0003789749748413831 1.6770743589233777e-05
629 -2.521367807891321e-08 -5.2195477495480964e-08 2.6116975953703623e-07 1.0602082189941858e-06 0.00011420383726668788 -0.000134573860589124
1187 2.974697381502322e-07 1.6914530305422108e-07 -1.7035360855075374e-07 -0.00019746823465138368 -7.901783303869051e-05 0.00018320400650449623
466 -2.629610461849335e-07 -3.2361266878304264e-07 5.503045838659514e-07 0.00034460373651190124 0.00014812259975746184 -9.999239606773663e-05
159 -4.6342456760810973e-07 -3.143857661453392e-07 -2.5100472614760767e-07 0.00014153164635371133 -8.404945218572141e-05 -0.00033173315626742084
331 9.413066450899358e-07 5.149234191685455e-07 2.8851364730055336e-07 7.13677393971665e-05 -9.728890714026578e-05 -5.083402551971097e-06
128 -1.1072008253680986e-07 -1.8977183742165174e-07 7.024511107831346e-07 0.0007739968010348888 -0.00041977041172524616 0.0004189500388950892
296 -1.7377720062874085e-07 -1.1230272959201181e-07 5.023003789734209e-07 -0.00036670128190148716 -0.0002532172708711995 0.000320918522552945
68 5.381639391381351e-07 -1.6673243788727192e-07 4.417415124542268e-07 -0.000463856293344684 7.519598222003801e-05 -4.5884134488383764e-05
153 -2.8797070075122394e-07 -3.8754313959734976e-07 5.564103502990081e-07 0.00013753657431075496 -7.96337926459886e-05 0.000522988402164005
63 -1.8003256900291544e-07 -1.2511802955188553e-07 3.429127675828813e-07 0.00044805521792494224 0.00014801427558396144 0.0004612027398942453
360 -1.4747222549178276e-07 4.5823294000958414e-07 5.226261836072577e-08 -2.2718326145811935e-05 -9.179706347060745e-05 4.061810447486765e-06
201 9.167742899454711e-07 8.208649942371933e-07 -4.4654322724513264e-07 -0.0006457874866403785 -0.0002587116726194974 -0.0005805570942050461
1494 4.1121623455427355e-10 2.0313705872147156e-07 -3.835368777229997e-07 -0.0007250725563507309 -0.00040536856807250475 -0.00018504348020212093
214 9.354245173496333e-07 -1.1238096181131554e-06 -8.400099520606393e-07 0.0005321570165660759 -0.00013352325166398306 0.00023003206309919394
13 -9.49548666674948e-08 -9.083080442271926e-07 1.167039160587733e-06 0.0004666345892531115 -0.0004200495359722144 -0.00015004200479259533
680 9.508611942225174e-07 9.390083951341003e-07 -1.3431074038793475e-08 -0.0007872524027229235 0.00010548250417171172 -9.855427459401734e-05
678 -6.790223060943838e-07 5.329429521184045e-07 1.1264732158510024e-06 -0.0006710314590574433 -0.00017684848730254956 -4.044280161522958e-05
47 -4.682405124025087e-07 1.4144787310911202e-08 3.390517776796541e-07 -0.0004484057032672649 7.187665366149889e-06 -0.0003867964297910194
570 -6.924959499070422e-07 -5.490351504641746e-07 9.819945840684235e-07 -3.7355893608435584e-05 -0.00015872954516282247 -0.0003754277085625856
544 -1.203853118435976e-08 -4.841553855067186e-07 -2.5153645873829187e-07 0.00015255811510245438 2.1907638812487546e-05 0.00013133398740506645
801 2.4665831592447678e-06 -1.5072514514516614e-06 -5.228668849918481e-07 0.000655658608996483 0.0011560790487822707 -0.00036018409116906697
161 -1.5477448467282523e-07 1.043837188308848e-06 -3.829852389174292e-08 -0.00023920604766350826 -0.00038584782260182214 0.000587916303198009
561 1.4782194196157946e-06 -2.977906268051487e-07 -5.736388423644001e-08 0.00019835233920585812 6.280372663789048e-05 -6.762225110751468e-05
272 -2.9574017822755756e-07 -4.071691218097846e-08 -4.8371537168926037e-08 0.0001342128826050909 -0.0004926087788487307 -0.00037262559808216926
417 -3.7334894177020654e-07 -1.9007202732959495e-07 1.6393608744660552e-07 -0.0002968058872329526 -0.00010315804462869462 -0.0002205205979335837
630 2.6616718031554094e-07 -7.993255540083336e-08 3.6513549223374425e-07 -0.00024590380651631636 -7.068380002476712e-05 8.999244201410561e-06
496 -1.1261990622174298e-07 -2.453139528632488e-07 5.671478069726309e-07 0.0002206317576930735 -1.708901168852835e-05 0.00012407613570156824
775 4.752275052752516e-07 1.2638911676592217e-06 2.3016623653254346e-07 -0.00042066761770520865 -0.0002909652299516378 0.0008917452872571705
297 7.060280683060617e-07 1.451641648201452e-06 -2.836460946258501e-07 -0.0004766077827358201 0.00014805676856715274 9.592809652071054e-05
338 1.3230685232989005e-06 -5.18585111218766e-07 6.197799886595363e-07 0.00024512666872894426 0.00015400316595853464 0.0001406870835720063
77 1.8777797846763278e-06 -5.913908063918835e-07 2.1196343035755768e-07 0.00048316452620357904 0.00011080953405757466 0.00028360846940133255
609 4.875980001375274e-07 -8.076277671349234e-07 3.802936479461909e-07 0.0002378402087253617 -9.857905540325447e-05 -0.00012766882095776496
36 -2.1786185274459616e-07 -3.065371092982922e-07 9.923416025799626e-08 -0.00024651440179396066 -0.00021661645641914834 -3.4295616302522806e-05
170 1.475351148260396e-07 -5.402301196231808e-07 -3.1318114894245156e-07 0.00031082264591851305 4.313214134126243e-05 0.00013891985744771089
628 -7.467253280783918e-08 3.592837494193764e-07 4.2211650580250315e-07 -0.00033539923428014667 -0.0001666237403271717 0.0009286097758520003
462 7.394718542700374e-09 1.980173555976449e-07 1.8349870819151692e-07 0.0011151726284539954 -0.0002760865785763919 0.0008488748812205537
233 1.4438010597393805e-07 -5.308760275426613e-07 5.337317833848847e-07 0.0005561517077159186 -0.00030574063473089435 0.0002842608526847743
1104 1.1948768186553076e-06 -5.854529695801834e-07 -4.5851744170897165e-07 0.0013099862561213342 0.0009356765898129109 -0.0003802656712551299
162 -2.5674137375254336e-07 4.367081927711956e-07 -2.710026550888185e-07 -0.00035780013168105584 0.00026138270623658364 5.3489091628882564e-05
252 -5.511145973468402e-09 -2.581531474982214e-08 3.116850796092806e-07 -0.00012183262858948226 0.0001096942622046846 0.00010847651175352799
25 -4.073927492269022e-07 -5.653193292494205e-07 -1.6199585632722317e-07 0.00020008486087626267 -8.288933390300645e-05 0.00012459326978403096
720 -2.5345696596187145e-07 5.813303271650789e-07 -6.828644961295826e-07 -0.0005729351266667721 0.0009112530793505119 0.0009273581066574776
250 3.1979820595820866e-07 -1.0490838198151831e-06 -1.0058991132554455e-07 -0.000670153858720374 0.0005382488161192484 -0.000766433881717723
1281 5.232412523332298e-08 -5.826251286823602e-07 -3.7976697171739497e-07 0.0015979286259679077 -0.0011511072179331506 0.000428602177448839
685 3.683668618315716e-07 -3.338882793154172e-07 7.20745949070187e-08 0.00021355352455594516 -0.0007490970337343044 0.0002660933164543306
619 1.1912121797078813e-06 -6.209840703001272e-07 -5.4476798865314155e-08 2.1435220195944852e-05 0.0003419560045994149 0.00017882719064507235
1341 1.1725039369313797e-06 1.3538761910252142e-07 8.858590427088726e-07 0.00015732962395286046 0.00016678904443439408 -0.0005194837762375104
133 -1.028910526869309e-07 1.9078270754061363e-07 -3.4574222567386346e-07 0.00019338868207905094 0.0001395546436662561 4.9992462261675185e-05
600 1.917025241349611e-07 2.84988162111996e-07 -1.5513867624270058e-07 0.00013191388503732259 -0.00020224745417920408 0.0004498402487939938
769 -1.565244520240334e-08 -8.239582928564036e-07 -3.2135443954297296e-07 -0.00011210615414359046 0.000443779165490742 -4.554196805858569e-06
716 -1.6463712819328701e-06 -1.3207270325071874e-06 5.548050328056259e-07 0.0002828378933181151 -0.0010881832821600837 0.00042782770595132684
543 6.477067386647929e-07 4.182537365093593e-07 5.916677867861104e-07 -0.0008619340912039693 -0.0004869006090194291 -0.0007407383045780648
747 7.465597720369862e-07 3.418147099224026e-07 2.5370875843830684e-07 0.00040365777819268393 0.0002356737105805541 0.0002476093724480608
518 7.882798145952197e-07 -1.718046549293229e-06 -5.372957024580109e-07 0.0006217084319671047 0.0007017594293510088 -0.000191283984093528
326 -4.744327960202242e-07 6.924215917258085e-08 2.737126281983992e-10 0.0006807505891692793 -5.4842211146262666e-05 0.0010580488996880595
384 5.853536118788367e-07 -8.324658899060488e-07 8.658103503734769e-09 0.00026511667274113605 -3.326858081664219e-06 -0.0003238310548966472
442 2.1383185384892115e-06 -1.0619269820693866e-06 1.1091565689003246e-06 -0.001147384028223733 0.0011092819823649565 0.0012469531968869762
835 1.5540459929973595e-06 4.2006526980050915e-07 -1.7670451557428845e-07 -0.00046887000810655403 0.0002941742190208592 0.0005840609751023146
305 -1.9751744980711416e-07 1.0581821955712969e-07 3.6852540073110926e-07 6.6185738241711205e-06 -0.0002568213992686724 -0.0004456717169060211
546 3.281844846134648e-07 -2.6425648799772024e-07 1.632882548350709e-07 -5.080915874652928e-05 4.3081855235946915e-06 0.00018462325189693552
199 4.805144102757991e-07 3.158209063783181e-07 -8.297309017847395e-08 0.00010852038970643583 -0.00023816924330547778 0.0005489160300861493
137 -3.828600508552145e-07 3.611467182501065e-07 8.986884389487867e-09 0.0001345039754972154 2.0973294879002154e-05 2.6865803616973677e-05
97 6.176504581110557e-07 3.5680579494843663e-07 1.0295151810426804e-07 -0.000789514980015823 0.0013068556763211412 -6.023204076155169e-05
691 -8.684544024701742e-09 -3.6411418837003465e-07 2.4251727892060406e-07 0.0012050992435637794 0.0006467756038678434 0.0016299658344785634
1138 9.535698731574448e-07 -1.022399362958807e-07 7.984422090345981e-07 0.0001409485864070397 0.0014166587036335205 0.0006759555176195309
1831 2.721732412068283e-07 9.977799940239389e-08 1.7532151097646972e-06 -0.0007283995510357239 0.00019278660670194624 0.00043857081292667904
549 4.908853352761164e-07 -2.0495166278431924e-06 7.631506115089402e-07 0.0012854307610848453 0.000467416117202807 -0.0003948511654606233
382 1.7701083249906384e-06 -1.1696867555757623e-06 -5.844061053636908e-07 -0.000309267959712512 0.0003707141839448975 -0.0005808591195902234
276 2.7973347808860387e-06 -6.564501911971633e-07 -6.557570257211174e-07 0.0004545427079254905 0.0013381217125849538 0.000646819965356236
136 1.929148041012925e-06 -1.8399213936178436e-06 -2.1583266560565966e-07 -5.041292204054475e-05 0.0006471187870395056 0.0008291675810690158
106 4.0590366545438967e-07 2.0921786559416847e-07 4.340804985864752e-08 -0.00043557669413492187 -4.65819995662672e-05 2.1353158876837627e-05
450 -9.247350782058163e-07 -2.2092235300682254e-07 -2.5429651987595687e-07 -0.0001208607450735311 9.108525566224413e-05 0.0005433965523769866
709 -1.331351772398026e-07 4.4918475920048535e-07 -1.9007184659002716e-08 5.924733006872758e-05 0.0005582906365216124 -0.00041878896402628893
115 1.3774858691892223e-07 -1.5384330410876726e-06 6.897755409313345e-07 0.000381344670345504 -0.000553095765179114 -0.00010997591584351729
666 -4.288234601184206e-08 -7.125039856098645e-07 3.020551136595889e-07 0.0007128162067532689 -0.0008767671111054268 0.0007957376854752673
446 -9.795929722493475e-07 -6.696633628638767e-07 -1.3991932638588475e-06 0.00048132937478745987 -0.0003578577593612617 0.0004828827054441534
45 1.7740199680924292e-07 2.2473373906339457e-06 3.722364546200206e-08 -0.0009623935391159228 -0.00026394021813612743 0.0005640072055232881
1114 4.456928531245725e-07 -1.3949743596400831e-08 9.73510317252814e-07 0.00042906388451303 2.5678248913140107e-05 -0.0008503242921017936
274 8.449152040191774e-07 -3.9046348133423706e-08 8.235600235317136e-07 -0.00017361906535357806 0.0003044710412606539 0.00020948426820427646
601 1.6224700093249336e-06 6.069045325934227e-08 -8.006227806840603e-07 0.00019054392079154167 0.00037697775924576686 0.00025798887320924104
1292 9.054885023325224e-07 5.136465438036186e-07 -2.345987833706875e-08 -0.00019630093406034386 -0.0003568234161370712 -0.0002489259024166398
566 4.1205618249801087e-07 2.191513120483285e-07 1.904423777371663e-07 0.00042864649981268416 -9.42574796211216e-06 1.1672170040414152e-05
248 -2.152812306777648e-08 8.567237262513995e-07 7.33798223058398e-08 7.125352924768022e-05 6.919594830196495e-05 -0.00011280000877878415
662 -2.2622036059208173e-07 -2.2324715323695857e-07 -4.676406497238379e-07 -0.0003424657648771494 -0.0001614764402514749 0.0001519024018970316
1134 -1.6783479191495507e-08 3.2081957838072547e-07 2.4091236759044387e-07 0.0004272514488948419 -0.000760626304865738 -0.00048410450302723744
118 2.457570328847954e-08 2.9493593719886676e-08 -4.78700590281014e-09 -0.00012844394543469614 -0.00035105272414858265 -6.172071084981777e-05
320 2.1289522873739037e-06 8.431890879345841e-07 1.0621704194859657e-07 0.000694456651782902 -0.00023459468358868685 -0.0005383635359088818
833 -1.5017199795684518e-06 8.83809755279195e-07 -1.923677537635374e-07 0.00014073656314993744 -0.0011483375693076407 0.000143031138205022
593 -3.548229074184249e-07 -9.904241711390212e-07 3.2669190369583946e-07 0.00047883872401173044 -1.1584582191166934e-05 0.0005951583430118324
414 1.4160177939254567e-06 2.7495244584166634e-07 5.979065476265536e-07 -0.00010766920155029474 0.00042383237200787694 -3.995715892226423e-05
121 1.237451066312295e-06 -1.0277599876141348e-06 1.2504461477034485e-06 0.0006337876721979798 -0.0010663250343472097 -0.0006549364678798298
1096 2.215537029976243e-08 -4.168287493686625e-07 6.474044594747003e-07 -0.0001266005581011892 -0.0001527675205536588 9.136228653737198e-05
427 1.2716292506676456e-06 3.591177958091701e-08 4.428280186359055e-08 0.0003802889286403703 0.0004650611430391556 0.000146965180052613
1434 1.1094911841016631e-06 9.976871063668333e-07 8.422669387446534e-07 0.00028428704863141377 -0.00043334670179104415 -0.00010269863373548241
776 1.1871675246961008e-06 1.9446915776236812e-07 4.398807949288804e-07 0.0010470783207694307 0.0008502822090990158 -0.0005367057940013686
2165 -4.828009886440837e-07 4.285682792129514e-07 2.9824584372449457e-07 -0.0007495890322120546 -0.00034163519852864786 -0.00047712614189259617
12 -9.417792380435582e-07 -5.591336975091668e-07 -1.8297086679081407e-07 0.00023027741172115115 0.00020113644614052134 -0.000181102960610586
567 5.968361048725656e-07 1.1767457243546244e-07 -7.517822127101684e-07 0.00014322203888525169 0.0007785160814001683 -0.0005697759090185657
1181 3.841080975438513e-07 -1.4708778718511307e-06 -4.4747535182600695e-07 0.00027519100554767423 0.00013548395195630452 4.24687236138545e-05
1150 3.895193861314816e-07 4.3515488018950795e-07 -1.1471188911841878e-06 -0.0010454981304092498 0.001467844391685708 -0.0002000040702886686
483 3.61434733837292e-07 -2.5230648626987065e-07 -8.67528887240983e-07 0.0002738422214853858 -0.0015497100719677238 0.000616775792806905
675 5.916631656302306e-07 7.585058692831488e-08 2.0738424279073517e-06 0.0010431116635330445 0.00047636635564807586 -0.0012576626639444208
655 -4.1790947002452753e-07 -9.350792303956731e-07 6.185604374546762e-10 -0.00030905569801436417 0.0002053506032248035 0.0005970584222764672
179 1.3869091567595393e-06 -7.151603999601093e-07 9.877966377493233e-07 -0.0003676408241293013 0.0010365419065418333 0.0007531586762180664
1390 -8.894235777077574e-08 -4.537671078590395e-07 -9.661855530411814e-07 1.0079169795503927e-06 0.0008979298210951496 -0.00025106283614845937
777 -1.9566940749083447e-06 -4.666852743750715e-07 -4.6508935623356355e-07 2.2406162134630363e-05 -0.0008075476205714683 0.000407991710207366
783 1.1776827378224403e-06 2.1298794327226938e-07 -8.260650032091163e-07 -0.0009938699827051456 0.0014109957735219708 0.00038381667211158306
353 4.257507747691107e-07 7.841569546344507e-07 -4.018444162553712e-07 -2.5526344946140478e-05 0.000350489045732363 2.2681681301901087e-05
341 1.3876815842674415e-07 -4.972107064800321e-07 3.4408029627788314e-07 4.776278649455966e-05 -0.00023181672895916753 -9.72838368606172e-05
356 1.541238013809851e-07 1.0268284657711623e-07 -1.1309897059309008e-07 0.00022135373113004605 -0.00013777393243125097 0.00017643998261672735
748 5.840192865050989e-07 2.433079454992008e-07 -2.8083651593514814e-06 0.0004050654866685521 -0.0012876069510930138 -0.001747511040649358
370 2.0434870472106767e-06 8.261425264135765e-09 6.849594406383829e-07 -0.0008485778090287229 0.0011848807650764353 0.0003383062894839483
509 9.222103114823777e-07 -1.280625355996357e-06 2.453582683648417e-07 -0.001244125302591631 -0.00023481930500946044 7.069567979926072e-05
318 3.163208233267649e-06 -7.160366388039989e-07 1.1233422307670493e-06 0.0005400607448851548 -0.0013274529507956493 -0.00014909753058334698
213 1.547255603766521e-06 5.605811569714045e-07 4.0203084024872443e-07 -0.0017368733556887264 0.0003627484932724961 0.0006981068921666469
151 1.5366900980723306e-06 -3.058949813671584e-07 2.0816202545446097e-06 0.0007212493135311043 -0.00014083866658473634 0.00016334440109179004
373 9.961341374390396e-07 -1.2805483169954344e-06 1.0531021994797856e-07 0.0012108981659102501 0.0012974901849246458 -0.0008739243539325478
225 4.3181248424800607e-07 -1.912883023437034e-06 4.0785949478563573e-07 -0.00022057508467488734 -0.0008525884192626913 0.0015893533845302732
1500 4.064281404218e-07 2.737155172022002e-07 -7.582431108360714e-07 -0.0003968848477566531 0.0004523134784683517 -0.000452564700751669
273 2.693799421784558e-07 -1.390409651620185e-08 6.520950502966549e-07 -8.316694663898512e-05 -0.0007011644072110372 -0.0009295549792979399
1534 3.682992993489829e-07 3.259586274327026e-07 2.416397652244316e-07 -0.00013942017411403714 -0.00047051379837942934 -0.0007934776291602857
527 -5.4064605708999384e-08 -5.638848643893648e-07 -8.821054263701454e-08 -0.0001076259029878753 0.00021484796501444053 -0.00038984262060975873
1005 1.8600314918223927e-06 6.081990043145271e-07 -2.2109896235221727e-07 -0.0002846029425739702 -0.0015697031808456735 -0.0010760195229534706
602 -9.235414002136873e-07 -1.0030896331607266e-06 -1.2432813025581726e-06 0.0007098737649436272 -8.414828206250066e-05 0.0021500434523524133
355 3.149763097931925e-06 -6.038047662645734e-07 -9.080861381187763e-07 0.00042903739713410864 -0.00018579933927979607 -0.001699912653641058
768 2.866155571933797e-06 -4.823989730985579e-07 1.9517490385201533e-06 0.00016806010437831883 0.0012686832798672473 9.419940097399086e-05
120 2.214030990154581e-06 -8.66076889388032e-07 1.3655651714065306e-06 -0.00043720934750831263 -0.000517115618774853 -3.0432975280688694e-06
195 -1.2535132382099353e-06 1.08664674847072e-06 1.5818914477916224e-06 0.0014224235650712666 -0.002482157669358964 -0.00011205594585308858
700 -6.395492030044601e-07 1.5648115613515072e-06 2.2480746131453024e-06 -0.0011517275999788999 -0.000660426631050042 0.001819507839267761
723 -6.234085138084319e-07 3.330853993710458e-07 7.545898295844811e-07 0.0009064310642498167 -0.00048449857680136127 0.000357440081770493
760 -1.0407088079816226e-06 -1.3143262086852402e-06 3.0596375754796096e-07 0.0009707099902876701 -0.0005594282824580418 1.85834795229501e-05
125 -2.2817298125724175e-08 2.246707442370865e-08 1.4073764016385335e-07 -0.0006319237753259671 -0.0011504002237954362 0.0014401675640276519
1280 4.969739995799403e-07 -3.163381877077659e-07 3.1226875455910316e-07 -0.00027636209985697967 -0.0003131179039869236 0.00028305074459965285
473 -1.780581550885897e-07 1.870381782521172e-07 5.272420445047004e-07 0.0002083712885245082 -0.00033967877024214935 0.0004970325207089775
395 1.3342364920839196e-07 -6.164445568050634e-08 3.927917236511606e-07 0.00037145058351549206 0.00041431753792600846 0.0008090359949742314
1094 7.086302315280721e-07 -8.401619326472793e-08 -1.0471806589135926e-06 5.8580475604217046e-05 -8.357675818610999e-05 0.00027621992656358705
677 3.796587661992449e-07 -1.3667287484261195e-06 5.581606106239354e-07 0.00012223903507955334 0.00030897162322175324 -0.00040179998158742397
1370 6.73110455554863e-07 7.047163758544669e-07 1.4644069872027665e-06 0.0006575832751640992 -0.0006210803736778416 0.0008753475802504027
420 7.885819178703296e-07 4.628191245021645e-07 8.434321789045339e-07 -0.0017386519995498577 0.00030000779509214927 -6.255000993738174e-05
987 -1.2910280896280055e-07 -1.9918929904667223e-07 -3.438985364941822e-07 0.001233512578454074 -0.00043318167965163113 0.0004976885791694907
1351 -6.403131723616445e-07 -2.5198866077091754e-06 1.2431845368499614e-06 0.0011848330148049556 0.0002750564670137045 0.001546870460351844
93 -9.846331879126232e-07 -1.3007882472990504e-06 7.7819084601602e-07 0.000898859634041849 -0.00046741448589195144 -0.0001923958859108527
210 2.2761217647311324e-06 -4.97953707817021e-07 2.0923075549863283e-06 0.0005050374464808153 0.0002625517150611879 -0.00014996504102566957
563 4.6820619874096193e-07 -9.344202092802519e-09 -2.613637238425527e-08 -0.0007827658672056461 0.0007093362513460837 -0.0009652679562568989
361 6.826855739408005e-07 -1.223437931082045e-06 -7.825094591207759e-07 0.0006848693683114229 -0.0007707805936793238 0.0006147666576149848
101 -8.001654470533489e-08 4.031433217140506e-07 -3.793440769781904e-07 8.522325824848989e-05 -4.5432314764636706e-05 -0.0003549416132424566
117 -1.6445028194936591e-06 2.834716709607386e-07 1.0012154920348051e-06 3.6649819207848e-05 -0.00010090371728635553 -0.00013753899434266057
1556 -8.550255044693638e-07 -2.1549146217248284e-07 -4.642309737589575e-08 -2.9764674165714216e-05 -8.72724464103726e-05 -0.00032813977364500025
582 1.170671624132385e-06 5.848190106624729e-07 1.4264640834630478e-07 0.00037252305396063694 -0.00037960711502134505 0.0002970148859702958
774 -7.905738937069072e-08 -1.4013531418550283e-06 6.624137115458322e-07 0.0005828970128805432 -0.00019125395027718217 0.00021661351581374013
936 -1.5645368357365938e-07 -6.473175053079948e-07 1.202294277398462e-06 0.0006999629226737153 -0.0004258615622708404 0.0006017450212017836
404 1.0746897589154658e-06 1.5886565689932017e-06 1.3014923841023923e-07 -0.001659282792667878 0.0002858185393579915 -0.0009076457122206778
364 -2.992489495735393e-07 -1.0045928197490892e-06 5.289331739262809e-07 -0.0006591407541436647 -0.00016119607819208175 -0.0006270237834760587
1548 -2.8582896762968463e-07 -6.785770851512893e-07 -6.298391371558312e-07 0.002151261383215591 0.0004875632826880716 -0.0004109571577828724
1438 5.919699825857354e-07 -2.846537005494222e-07 2.9946678753085833e-06 -0.0001668305310798089 -0.002221751891176166 9.789184934867542e-05
37 -1.5289689471373375e-06 -6.282972498677516e-07 5.959767463495296e-07 0.000693791541199357 -0.0005750918079536992 0.0003512259713014644
1508 -1.555336840397869e-06 -6.820674201025964e-07 1.0660991899200181e-06 0.0013141703553206274 -0.0004191774554604561 0.0010716833825887451
1560 -5.35056064398296e-07 5.391509042941358e-07 5.906366220673813e-07 -0.0005375281413486705 0.0005349385044939997 -0.000149917864045401
74 4.1143062669321517e-07 2.4303334591756415e-07 3.8874882123398266e-08 0.00040165980669709667 -0.000346859465387078 0.0002215849174248397
138 1.107723848951661e-06 -6.514794086327955e-07 -6.104639515393549e-07 0.000287747453067216 0.0009822834561300823 -9.287962729044184e-06
197 -1.6961225231882978e-07 1.2319827505002406e-06 2.125117181842352e-07 0.0003361864699951832 -6.899012622047723e-05 0.00024751706020254596
828 5.29238843792643e-09 -8.390309520559497e-08 3.554336484932617e-07 0.0012323663929707013 0.0003978312846219621 -0.0003193877770377067
141 -4.504516715009506e-07 -1.497105800281395e-06 6.28303279396498e-07 0.0008389635679393789 0.0006867222899155078 -0.0007328552196048445
385 -5.821439991666503e-07 1.4065962824940815e-07 -1.282509915551652e-07 0.00010667437632358234 2.9890158300144816e-05 5.661494018960294e-05
196 3.289246380358832e-08 -9.208423930805979e-07 1.7308169792257643e-07 -0.00014151330331067108 -0.00017306051372118462 -0.0008241063794939895
288 3.4585875286827457e-06 7.755908186122639e-07 -8.421977109876576e-07 -0.0004383064047967161 0.0005103547865093335 0.00047947772708495
347 7.805936544812299e-07 1.301312255567248e-06 7.865702150389754e-07 -0.000999696377212834 0.00032263622918998877 0.0007280776333823157
178 -2.0546994781902124e-07 -7.115664336614667e-07 -2.2676354770357346e-06 -0.001521030895462563 -0.00024096839242589092 -0.0013731699563980142
190 -9.958423074671987e-07 1.464894978075651e-07 2.596488904291454e-07 0.00021820370847706804 2.5200493996682847e-05 8.596778559831871e-05
358 -2.885996480597722e-06 -8.998305742799616e-07 2.723222227739322e-06 0.0003065238278172832 -0.000535499945373229 -0.0002124771935718127
32 -3.4009596925239313e-07 -1.8097467722844644e-06 1.0413928889529669e-07 -0.0001364739476117 0.0003097541306332158 0.00039330502077635274
1255 -6.592599488535482e-07 7.995301522245847e-07 5.423774707810188e-07 -0.00040543999279190577 -1.1633711373065098e-05 -0.0005019643015669941
1554 2.856906739974528e-06 1.6649763223695306e-06 -2.2987813496529232e-07 -0.0008428008007724379 0.0022026447249172618 0.0005671893699426795
688 1.0875875792848554e-06 2.6114963623002105e-06 -2.967331896602035e-07 0.0003968228807193096 -0.00016055986781387892 -0.00019175794195087884
246 5.542421659132327e-07 -8.4983772463316e-07 -3.796461547791296e-07 -0.0009064473101338605 -0.00039927221905705277 -0.00032817548776096394
581 5.882610292011781e-07 -9.877115119884204e-08 -3.903929489272778e-06 -0.00031475870149107123 0.00012550720950630257 -0.00023000274249584048
1082 -6.439631335039407e-07 3.4445545962873365e-07 -1.7567820039450332e-07 -0.0002444193214887444 9.197308830900098e-05 8.67810279448862e-06
294 -2.0047058354859666e-07 -1.2099034685996044e-06 1.5021435794570823e-07 -0.0012420942586250678 -0.0003066706912456023 0.001025004841085891
31 8.669565840669164e-07 -3.383994655435336e-09 1.084979838238448e-06 -5.5576004982822685e-05 0.0003084721621166994 0.00018221784989660652
493 3.4148044628092413e-07 -1.420235451475735e-07 -1.1187494122549924e-07 -3.858449502524239e-05 0.00023676316781295632 1.2043749080517286e-06
204 4.520751857925784e-07 -4.7206424214100556e-07 -1.4993258972977062e-07 0.0007294271266441723 -4.796859966944217e-05 -3.4548705178840385e-05
94 -6.958137106034516e-07 -1.9072622939986356e-06 -3.4240240911480097e-07 0.0008272487482710815 5.245772281806328e-05 -0.0003492384222508746
795 -8.594412872133815e-07 1.361773803830871e-07 6.241226250927414e-07 0.0008620504297324971 -0.001041937788829985 0.0009427689788293035
262 2.5024072526864527e-07 -5.20531948226378e-07 7.99239319050189e-07 0.0008934882304334737 -0.00019407722671936468 1.7254657796107316e-05
163 -2.2901570438301764e-06 -2.605370634361496e-06 3.392323427557196e-06 -0.0009972469378658874 0.0009526064334708331 6.035237468830182e-05
383 1.5114153748414829e-06 -2.2720946376643052e-06 1.7813728118899723e-07 0.001274469493036218 0.0019588279085191377 -0.004062983569536482
763 3.414878940410841e-06 7.930019926280936e-07 3.7841192924119363e-06 -0.0002229207092282018 0.002420159973036682 -0.0013371944803406233
41 -3.55783106323537e-06 6.099333512734621e-07 -8.28494638428425e-07 -0.00018480202255209935 -0.0005285505582412482 0.0007636050534581335
100 5.364444348270973e-07 -1.2875683294729954e-06 -1.3491287683378436e-06 0.0008735579701197442 -0.00033862666081050865 -0.00040496504115414994
644 -1.641208983194997e-08 1.1964654808735216e-06 -1.2611044296758276e-06 0.00020335664034183814 0.0011544993958910817 -0.0006259385276954655
724 1.6948722355365967e-07 -5.761323356822601e-07 -1.3776314346189683e-06 0.00036662214292129393 -0.0005472329972898229 -3.162966654692892e-05
377 -3.3713117179161234e-07 -4.792874472054163e-07 -9.854124881038444e-07 -0.00022098962576359689 0.00047271163618327604 8.047886390359013e-05
1066 3.2475009660764464e-08 7.642788990621707e-08 -7.256851050118471e-07 6.182322248592432e-05 -0.000520355033098018 -0.000724326606518305
524 -2.3107590775754596e-07 -8.42541597203452e-07 -3.500420929539271e-07 0.0005844172080089779 -0.0002827627285531038 -0.000858508716065223
1188 2.052151898330857e-07 2.2240567957660347e-06 -4.2992708762333706e-07 0.0003204558957926774 -4.639226756427067e-05 -0.0005357787521883448
379 3.534272435931706e-07 4.3650575264883717e-07 1.576115354418052e-08 -2.604159577115685e-05 0.0004083593471840432 0.00025206417785383613
1511 4.519532432233918e-08 -3.3154468707064395e-07 2.807194965916077e-07 -0.0005373243438732142 0.00014469238978775023 0.00020451730527037618
497 8.36944035906227e-07 8.959083872086959e-07 9.307453327123099e-07 -0.00016064865324774894 0.0001137300895923476 -4.883487653886982e-05
219 7.916869049344084e-08 -1.781176896970316e-06 1.0853243467589716e-06 0.00021598732907973962 -0.0007549019110869052 -0.00015036749858482202
784 -2.3774135599250117e-07 -5.647296324973638e-07 9.569205633400181e-07 -0.0009060431180512141 0.0008129790383528768 0.000789549767325792
253 -1.6660057248478923e-06 -2.237648511536192e-06 1.1809598313595162e-06 0.0009357856850503114 0.0005390769540042847 -0.00026820923435487957
23 -3.778443461596739e-07 -1.5557152623003497e-06 8.628475327228263e-07 0.0012125476888966882 0.0008605176284898705 0.0005943192974532761
744 4.79975382660488e-07 1.0597294427412759e-06 -7.054766206762586e-07 -0.0014375843013144083 0.00019062159882036762 0.0019748844103969674
113 -3.472500840482973e-07 1.466647344064289e-06 4.295101025426944e-07 -0.0012852369070777351 0.0009267463842393326 -0.0008576643370797427
460 -3.3982387347203478e-06 -2.880475763363941e-07 1.0117030322073469e-06 0.0008358932694478892 0.0002595355730111623 -0.0012538709166227094
726 -5.657670379513199e-07 3.191143165509791e-07 -1.7031776855173174e-06 0.00041127993642511726 -0.001828236742286432 0.0012663372334222867
284 -1.6090622038528427e-06 1.862398771348746e-06 -8.344421248552438e-07 -0.0009839760912492208 -0.0003483329339805896 -7.802544709804306e-05
236 1.0819637053881498e-06 -2.4198356452576227e-06 -1.3990403086540928e-06 0.002466999557586036 -0.0001366174890463548 -0.000378337225473242
1054 -5.324048436556457e-07 -5.127316072775135e-07 2.3597221561698235e-07 -0.0004399455493037482 0.00028579280502395385 -0.00011330365958526443
89 5.951259434693314e-07 1.3700969390585734e-06 -3.779346415672202e-07 0.00026205584669699813 0.00020391216146463734 9.125540347000866e-07
1338 2.1240116931374521e-07 2.0413301977675873e-07 -3.1049860116418864e-07 0.00044715558627201533 0.0002246608567060833 5.319590477469467e-05
607 -3.5931724302801078e-06 1.5830970755242516e-06 3.105594244637865e-07 -0.0012307892195394608 -0.0006529147552716456 -0.0022648304574970435
876 1.504770054712982e-07 1.459734262798169e-06 -4.651645444513218e-07 -0.0004182445161055786 0.00010685096751598772 0.0003176764743356782
4 6.614209636545785e-08 -8.506894272838191e-07 1.686310438376959e-06 0.0007627735732326531 0.0014928612536576943 -0.000215688931588257
435 -1.3514812478913331e-06 -2.424144413167214e-07 2.7975560042360064e-06 0.000750607293066811 8.43736815431257e-05 -0.0010632350574783333
87 3.0009136744764904e-07 7.156377349197777e-07 -1.4886932296194887e-06 0.001071140468716065 -2.802201259785992e-06 -0.0010928854244977976
634 2.2976421160716604e-06 -2.7475198682691198e-06 -1.3639973621284235e-06 0.0008880739018454242 0.0018613574861631858 -0.00041876213222117567
552 -2.6389487167496554e-06 -2.3643246513895062e-07 -2.751450275886785e-06 0.0002143387773899078 -0.0006092020730244827 -0.00174295086882054
632 -1.1410149270783129e-06 3.9289629646917683e-07 1.8060544679674807e-07 0.0008224442752694306 -0.00013250255539505728 -0.0005337195709329493
40 -1.7703326057872744e-07 -1.5044815316089512e-07 4.871394388814785e-07 0.0005565245103476154 -0.00030999284762556553 9.335368792703501e-05
1122 -8.733342964158442e-07 2.783875884329711e-07 2.3696894594641222e-07 0.00024132995518664647 -7.578782532634572e-05 0.000452121298820316
65 -1.0225263540384634e-06 2.8273886291430706e-07 3.6941551636430063e-07 0.00015444492723916143 0.00022778799156297723 5.430696329888384e-05
1007 4.577124992277229e-07 7.121852433525862e-07 4.644446746283423e-07 -0.00013918228849899928 -0.00038349248701254236 8.129877743044713e-05
635 3.415185608181971e-07 6.289841249837281e-07 -6.1469785146428e-07 -0.0001589022398990833 0.0005331078901271326 5.99029992796501e-05
501 -6.832870101040324e-08 5.036610799532545e-07 -3.6758667239907584e-07 0.0003879266360221713 -8.146552910646792e-05 -0.000551141167363274
742 1.2269962105347923e-06 -1.3668392875298766e-07 -9.144180406357245e-07 0.0007308674679771 -0.001259441361585427 1.0042992707839162e-06
102 -2.77827284888556e-07 -1.3534784740858469e-06 1.4464208016063615e-06 -0.0006146349103598577 -0.0006447835298905152 -0.0016687311316035988
513 -3.134114676739791e-07 -1.4624981382494303e-07 -5.26428864574409e-07 0.0007724606529637599 -0.0005241713937211352 -0.0001543810519289427
569 3.549302205149176e-07 2.1427642333546677e-07 -1.1572247624457383e-06 -0.0004786994167456503 -0.00011078921340348751 0.0009047294429132695
369 1.3126160956006018e-06 2.5008286674782103e-07 4.2135146707899797e-07 -0.0003066794319394274 -0.0005408393878517001 0.00047503779591873233
313 8.311787130722638e-07 5.953104440728925e-07 3.5308382181468224e-07 -0.00015162184895489911 0.0005122725958381685 -0.0005089993464433564
592 5.578823451747215e-07 2.5186206358917503e-08 -5.085527571771369e-07 0.0005648676488268729 -9.144984960096538e-05 0.0006221784719048393
625 5.000463064273971e-07 8.343946905434871e-07 -1.982897326178738e-07 0.00103202778167496 7.764252464209481e-05 -0.0009850342544574424
537 -2.2021066051467016e-07 5.47462285834365e-07 9.034280125378823e-07 3.2574058287383814e-05 -0.0005876399328491792 -0.0007401945910018045
1553 -9.224554826099526e-08 -2.625507539457194e-07 5.888997637661994e-07 6.030419037859242e-05 0.00027412234060684445 0.00021328534740518666
752 -3.374695936823448e-07 3.853166074089058e-07 4.050663550687271e-07 0.0001258939428334661 0.0001264219643612005 0.00018724106002064868
866 -1.3532108905342759e-07 5.109137997337201e-07 8.990847061364857e-07 0.0007042773477323729 0.0002495317919081792 -0.00012002636430246461
620 4.720403295545944e-08 3.0762660797542976e-08 2.1063697276734045e-07 0.0002688849465733351 -0.0002774029668087288 0.00011516916620269787
307 1.5263633785806626e-08 2.8518099226124885e-07 2.1698286111577218e-07 0.0001367587439502118 0.0003990045009744028 0.00010182383870980269
265 1.241910687692989e-07 1.6419259309165262e-07 -7.807765952699858e-08 6.83609931845012e-05 -1.566252939139765e-05 -9.683909125073256e-05
683 -1.866153276183091e-07 9.678230144260472e-08 -4.3415127456674506e-07 -2.7696823213840645e-05 0.00023553591237468444 1.1239736693446824e-05
55 -5.110044828116734e-08 -7.125685015052427e-07 3.865658948034159e-08 0.00044983173414353436 -8.033768571410252e-05 0.00032948361689898414
228 1.3316502274491422e-08 -1.483009950836874e-07 3.0697910465124604e-07 -0.0003180627520279965 0.0003867047276678906 0.0001339972934240387
508 -4.215614432873805e-07 -8.804013882639012e-07 3.6781502784685563e-07 0.0008356601545919823 -0.00016770862231716633 -0.0006925439895052873
325 7.100077759712548e-08 -4.2445851919474855e-07 -3.2853637068019913e-07 -0.0003998114471226269 -4.222201600191787e-05 -0.00027986248386601857
456 4.857264259941796e-07 9.15978432550621e-08 -2.6268320330880184e-07 -0.00032833513093402964 0.0005431886475526914 -0.0006223515634453874
499 2.702728313956348e-08 -7.461469139405982e-07 -1.663488424880917e-07 -0.00038014883087055657 0.00010897010943902342 0.0005378927013858667
81 1.146020545848346e-07 -3.430173183412977e-07 -7.465730745493834e-07 0.0006503606843901197 0.00013261596128504 -0.0006251620427440233
560 -2.65247100810443e-07 2.869527509014062e-07 4.482870609307863e-07 -3.06302320639769e-05 0.0001445406762457809 -0.00010724817993707139
189 3.068293005721379e-07 -2.467877322825433e-07 -9.241864141937608e-07 7.421767169262594e-05 -0.0002497745521457607 0.0004213277965160398
484 7.089067543944468e-07 3.8504645854679575e-07 1.1860407821710492e-07 0.0005758085946643045 0.0005068753222125413 8.432259307361426e-05
342 -5.905834968613393e-07 1.0277884618870246e-07 -3.2135145877732835e-09 -0.00016203812261275676 1.4550696344580274e-05 -0.0002190184018886806
186 6.921175715203823e-07 2.086324588969917e-07 -6.24135414915901e-08 0.00020309223066640643 0.0003811339215449418 0.0006891008361671125
372 -6.127662560732414e-07 -3.491292770179803e-07 2.4559227616293437e-07 0.0005653064927547862 0.0003945471873463172 -2.143409519090175e-05
1992 -5.744439222401203e-08 7.52275631503485e-07 -5.144149925090262e-07 -0.00037370367160804703 0.00018335776407203596 0.0005190717022765386
168 1.1237450916515048e-06 -1.0537690827403632e-06 1.0342776564237738e-06 -0.0002326990991940932 0.00027665341887875056 -0.0010453764863601537
292 1.2545819189884947e-06 6.016090823126512e-07 5.328225047498281e-07 -0.0022403916126591114 -0.0008062787020600215 0.0005769085174904895
381 -5.016983792756862e-07 -1.4349546081873545e-06 5.275198006950444e-07 0.0008819365656377199 -8.520082223367277e-05 0.001781579212232032
465 3.4663869490820033e-07 6.127497621397019e-08 -1.1293639899927162e-07 -0.0003964265397027841 -0.00011488042610974077 0.001246582904518601
134 -1.67239028528748e-07 -5.342542024277892e-07 -1.872999401566456e-07 0.00018313352006405173 0.0006047937027142991 -0.001428890292982914
254 -3.964406203404626e-07 2.6848218763897735e-08 -1.1507953561257975e-06 0.00043480874919299656 -0.0009516446398858996 0.0005218563380766773
641 1.2324730428329695e-07 1.9760736615239853e-06 -2.867471902674973e-07 -0.0011977039558137507 -0.0003600390194464305 0.0003259678351523037
624 2.62982132355609e-06 2.3435003097448862e-07 2.4688094247813594e-07 -9.199409268913976e-05 0.001317743719746353 -0.00029419684037772307
51 5.825843598190963e-07 1.2679083623940059e-06 4.77454257528896e-07 -0.0008248096830565852 -0.0008119558072855445 -0.00046311554434846084
374 -4.971833203518731e-08 -4.026605336294407e-07 1.7090994310136989e-06 -0.00054310230495629 2.5740430221744566e-05 -0.000708845657445211
172 -3.308198149449205e-07 -7.409491577558163e-07 7.501113281855324e-07 0.00028400588998489946 0.0009619112710367139 0.0002883491337193988
268 4.3388545425029363e-07 -4.3747905504739854e-08 -1.1256394878264056e-06 -0.00034480613196649043 0.0005118578939222629 0.0005334544621496282
750 -1.2623302683520304e-06 1.3949718727833272e-06 2.658732797054837e-07 -0.0006896190553808556 -0.0004300704977717576 0.0008703410765955518
555 8.1276595480596e-08 -1.2764833223979757e-06 2.4024760077010396e-07 -0.0002512047888069365 0.00026001892803025474 0.0006463444002765971
406 1.510392616872836e-06 1.6774617298826145e-06 2.8424033919134593e-07 0.0005721268357586601 -0.00012705711127675368 -0.000241848946214629
223 -1.4796083384417118e-06 -2.377685214030966e-06 1.2730883044232106e-06 0.0008507079230648917 -0.0003736834312732709 0.0005286660110738845
517 -1.0275320851355358e-06 -1.3540512521012506e-06 6.469073384193754e-07 -0.00015550464192294638 0.0014521013822999486 0.0005768645409659791
29 5.797382240415137e-07 -1.7947035488990876e-08 1.2123302396977775e-07 0.0007376943810407686 -0.0001323364823574663 0.001515373138923533
588 6.710645393419398e-07 -2.9683363994714717e-07 3.40317048710941e-07 0.00026147677020010705 3.661921858399667e-05 0.0008369441446784202
526 -8.812851243254946e-07 -9.0645243577821e-07 1.0299627704830664e-06 -0.000378125994922204 -0.0009301055828287155 -0.0006520008850360013
1571 -3.867377799933692e-07 -5.645798019655356e-07 1.1015359309004876e-07 -0.00029514032231459363 -0.0005094104585052795 0.0008913698342805414
583 1.9136513416339656e-06 1.8098753000511563e-06 -9.507285605527939e-07 0.0005389801404115747 -0.0002773169155953152 0.0012319182758447397
521 2.379442467441125e-06 9.324269846215875e-07 -1.4017267101891884e-06 0.0018459378557288562 0.001296684606382591 -0.0005349126808250882
502 -1.6579235653198272e-06 -4.600235193837029e-06 8.509551638879697e-07 0.00240305214496753 -0.001029096314201269 -0.00029106972324575606
575 -8.237658442607249e-07 -8.388060382383883e-07 4.4121606650134996e-07 -0.000600980119390151 0.0004026421053438317 0.002703819106304444
397 -1.5813053715295127e-07 2.95931412033182e-06 2.5973213195081487e-06 -0.0015872404163921393 0.0014244114629032465 0.0009559319987996229
351 -6.058998021444776e-07 2.40993540285274e-07 -3.294214955607003e-07 -0.0015172004200279183 -0.00021929041236466384 0.0003696039137066608
18 -3.4422294389273125e-07 -9.397543371386412e-07 9.41938788780102e-07 -0.0008774237169790352 -0.0010928592534011105 0.000519227360851941
1057 1.557287182546728e-07 -6.8287110959255e-07 -4.0148417943231554e-07 0.0002802757901815209 -0.0005200935147660986 -0.0011462235839625368
1117 4.4400504912862425e-08 -4.128322502815205e-07 -1.295485991800415e-07 -0.0008489008806622845 -0.00021994888477481898 0.0003819828288645021
706 6.72476549221243e-07 -4.411942506751934e-07 2.553402283135958e-07 -0.0017807683726041032 0.0018087896877100832 -0.0003983112974691441
362 6.850241479145439e-07 1.4461285871478658e-06 6.782809353378369e-07 0.0005209977800512327 -0.00027865382789710164 -0.0003845277662344578
335 -4.0801950561773814e-07 9.83092107308352e-07 -2.1614465048140625e-06 0.0008805615011117165 -0.001691486189174652 0.0007036925229001891
238 2.7188153609121326e-07 -1.3088097656350892e-06 -3.7419998131162436e-07 -0.00023861854825312517 0.0010428883923602895 0.00045972016190067754
1286 4.8836598808869216e-08 1.049597652571299e-06 -3.96827218654588e-08 -0.00030057500071765047 -0.00020627101797545823 0.000255753382350426
19 -5.1747642170399315e-09 -9.427608055719755e-07 3.4512934324820725e-07 -1.5091152108068669e-05 -0.00016941915871288094 0.0001486710001481289
299 -4.908874157166511e-08 -4.135710675469693e-07 -1.2388552890388388e-06 -0.0017376130150259256 0.0006750347773522965 0.00010765568244918001
471 -6.623608702077563e-07 5.377186800050158e-07 -1.7178057694736854e-07 0.0006080947089364821 -0.0011651760837117673 -0.0004324352058009492
116 -6.924904658642333e-07 -7.732466130028337e-07 2.3634656619551793e-06 -0.00011123826147134504 -0.0002899341360886201 -0.0017130342588526932
533 -7.558284487221957e-07 -4.6124289345536455e-06 -4.83602723210696e-07 0.0003605744017579258 8.45231587689734e-05 0.0006788158336718216
686 -5.080877861578999e-07 2.3875056089718776e-06 6.21118624911343e-07 0.0016756955664193585 -0.0005446137866563277 -0.002188189497454576
453 -2.6737581572422555e-06 -1.2005905948460915e-07 -1.8202429181566515e-06 -0.0011030613464364412 0.0005421484584413229 0.0014289854404881315
1051 -4.2989504730895213e-07 -6.552699579490071e-07 4.844878645411492e-07 2.7701288250129574e-05 -0.00063504571758751 0.00030217655002716924
589 -9.134251657475134e-08 -3.1967289181578607e-07 -1.8340438059511838e-07 3.964681508981677e-05 -0.0001993884190598722 4.0398688846140544e-05
1517 1.1573074576063296e-07 2.2014190039802724e-07 2.8776442172473195e-07 0.0006225730721001366 -0.00027096892292719654 0.00042546696391229525
300 1.1291397794406607e-07 7.336251218359634e-07 -4.569881953883799e-07 -0.0006387022180297626 -0.00054184395329784 -0.000525677996728249
657 2.4495721421115222e-06 9.83343983992332e-09 -5.196137822654345e-07 -0.000588138113777955 0.0007007675404184777 -0.0011182598354538141
436 -1.0386879293990464e-06 -6.396914259776761e-08 -1.8781440745556308e-06 0.0009041493048012419 -0.001092820621418248 0.0005142411901829795
198 5.098416542411144e-07 7.935836320197467e-07 -1.5172483031219398e-06 -0.0010164704729728117 0.0006939847351911568 -5.065735702114369e-05
579 -8.309757757724091e-07 -5.563038125831392e-07 -6.921054407359797e-07 -0.0009172515042229675 0.0005692797518704677 -2.5578533419603554e-05
679 -1.493405088878997e-06 1.7590608640714122e-07 -1.3424871141853186e-06 0.0007384636406694694 -0.00139086856522964 -0.0026359626890548435
348 -1.4276856828120776e-06 -1.074123005787795e-06 -1.6809676766953746e-06 0.0017092376241636868 -1.7666922340401588e-05 -0.0012788511858590648
21 -1.065343275194778e-06 -1.3125929425130648e-06 7.931385617603597e-07 -0.0004483970147027884 -0.0003937695208449559 0.00021703683999334323
761 -7.090830427607644e-07 -8.144278916682358e-07 6.328550224300603e-07 2.2418721289335447e-05 0.0003837642210486585 -0.0002842996099077908
461 -1.0573610205165256e-06 -7.58844016720553e-07 5.833850196970461e-07 0.0005725659920473823 0.00011506007112852179 0.00030588043090212395
306 -5.287428240791411e-07 -1.4119704961052124e-07 3.557445248692007e-07 -0.00029001792771456614 4.551292056701986e-05 2.7346982741843773e-05
830 5.9483720074059295e-08 6.161702462310947e-07 -7.094195353139933e-07 8.919538211909426e-05 2.339338967065461e-05 0.0003288713784384008
310 2.2852094266046175e-06 -2.839974929776707e-07 -4.560302161549719e-07 0.0003029562086039713 0.0009894148766910681 0.0003273026076612849
44 1.7432459537889886e-07 -3.212446535423599e-07 6.007383664887818e-07 3.816947484269516e-05 8.33596684483355e-05 -0.00012199956139965449
244 5.884842270386823e-07 1.6185811920144688e-07 -5.878109400592692e-07 0.0005656094390904011 -0.000844630932805971 7.035101658553072e-05
70 1.3026620780718122e-06 3.0681088841985647e-07 -3.896384286081543e-07 0.0009567597792214868 0.0006763220974553744 7.519851520761155e-06
167 -3.409806156953969e-07 2.0929982279440175e-07 -1.640788895271839e-06 0.0007380430004008675 -0.002017674909054309 -0.0008527111672546631
66 -4.093100244718751e-07 -1.2678729086902047e-07 3.048309801863375e-06 -0.0007337980340879418 -0.0006513917227946307 -9.348520898128054e-05
290 8.644798221074076e-07 2.452334787697464e-07 1.7115113073521108e-06 0.0003937047482211365 0.001070108100187791 0.0006567098290282363
301 -2.856804360757414e-07 -4.497125395200215e-06 -1.0319432571965624e-06 0.000554899765746381 0.0011461359763882456 6.164960355726796e-05
447 6.818230058008569e-07 -8.157344705811383e-07 -3.716770668397612e-07 0.00027194317446075424 0.00036805652639648067 0.0005059791661200309
105 -1.928034381624993e-07 1.1192916480502005e-06 -3.9398073266196646e-07 -0.0005222604509142416 -0.0009143732204436052 6.847459444963601e-05
403 -9.944271577311357e-07 1.1850946922013854e-07 1.129813044267455e-07 7.455073569075461e-05 0.0004852795320851726 0.0005826836471514369
597 1.9217611857647667e-07 -6.206958704232456e-07 3.984643284600251e-07 0.00020692721618565817 5.9028006014805805e-05 -0.0002375333110544464
332 -2.590896408867372e-07 -3.536559610822375e-07 3.629706734758541e-07 0.0003561149590040492 -0.00030381679797030056 -0.00010480225582154124
741 -2.6071107802809646e-07 5.2624004508617665e-08 2.724324219575778e-07 0.00026522108647853207 0.000352233507259826 -0.000135240630746574
114 1.7432954683576693e-07 2.1863712085399388e-08 -1.6301412125101797e-07 -0.0002466023406257686 -0.00017419887899047259 0.00011782577108979572
390 -2.1640391064951222e-06 9.118424092236565e-08 5.755877001282991e-07 0.0009530854947768097 -0.0013701705655989862 0.0007599671541905302
711 7.276540307742665e-07 1.6545904254261072e-06 -1.250115001462271e-07 -0.0006249584294845807 0.00039705627875307744 -0.00011200501526307593
650 -3.6530747990695057e-07 -1.1281777764253428e-06 -1.4080701527379009e-06 -9.413579055493928e-05 0.0008769772538564154 -0.001033885606096844
598 2.331870587972648e-06 3.1717129135878102e-09 -1.054262018677262e-06 0.0009487961821741397 -0.0008660226214127158 0.001287749575684366
492 -5.170489878186732e-07 -3.080382827999742e-07 -1.744801834239177e-06 -0.00011904714839323603 -6.216370652813447e-06 0.0014089524784373524
3 -4.361181120185607e-07 -6.387540971331977e-08 6.25992759636317e-07 -0.00018309376013842402 -0.0005589164039594308 -8.249212901049628e-05
